Mg1 Mn1 O3
1.0
   3.5082991783563093    0.5258249388647471    1.3753147517835418
  -0.2044921768210334    4.0887221587603362    4.2311009273906990
  -0.1106631323287675    1.0086886827981569    5.1414144131401045
Mg Mn O
1 1 3
direct
   0.3894558776423794    0.4122037431060298    0.9682419471872951 Mg
   0.0798132474403227    0.8692307458018568    0.1319323284964700 Mn
   0.5475533613126582    0.8498858677221947    0.2183724608557200 O
   0.9630993435586821    0.3855917214388596    0.8493922615212521 O
   0.2534306421764381   -0.0408911917888982    0.6869717947304741 O
