Mg1 Mn1 O2
1.0
   3.7588181162016592    0.3813415083828653    1.2975001887234101
  -0.1245342503477467    3.7575088385473938    3.6193708526584061
  -0.2924825179285032    0.0167918305776722    5.1942427585318507
Mg Mn O
1 1 2
direct
   0.4408404149742329    0.3978805506722801    0.8588163002527076 Mg
  -0.0178972388206505    0.8368190461306543    0.3011240194243057 Mn
   0.4283565597859524    0.9138226610545230    0.3752295287434059 O
   0.9799777575027263    0.3373820009701246    0.8023133118521679 O
