Mg1 Mn1 O3
1.0
   2.9035062346891456   -0.1107785188466354    0.3128694043877386
   0.4279357610661233    5.8910137783704872    0.2052909050286471
   0.0943876440397346    0.0611696659311276   11.3792301761337882
Mg Mn O
1 1 3
direct
   0.4685410186281628    0.1797772602417281    0.2312908303999623 Mg
   0.9132968996384598    0.6792726034964571    0.3222691656503895 Mn
   0.4316740742656137    0.4683083204749769    0.3158298034606538 O
   0.3982928716663693    0.8905553144991730    0.3290247656757918 O
   0.0209186121159970    0.1603241048494601    0.1182199615356404 O
