Mg1 Mn1 O2
1.0
   3.7537045788247294    0.3765597631122292    1.2930150624472045
  -0.1158133158738195    3.7685376973320146    3.6038149007402840
  -0.2898668098602661    0.0233011300472299    5.1878306437334185
Mg Mn O
1 1 2
direct
   0.4386211405829407    0.3930514532886950    0.8568150828696541 Mg
  -0.0202449464676569    0.8323023188057398    0.2991220917931612 Mn
   0.4249306576011931    0.9096413949809965    0.3732069899114007 O
   0.9772248743622320    0.3324553810263512    0.7994965834816475 O
