Mg1 Mn6 O8
1.0
   6.4063743024529405   -0.1974909941492854   -0.6635901751587721
  -0.9271093098266553    7.3154267886998037   -2.7727241114365251
   0.2164792589395595    0.0963738612111647    7.8241904336094779
Mg Mn O
1 6 8
direct
   0.0592245317867560    0.0728898126574470    0.0968425608603589 Mg
   0.3238604811404635    0.2284507133094168    0.5348633459486627 Mn
   0.1249050989499372    0.6628248240670880    0.0964422379481034 Mn
   0.2142531591309454    0.8243407446014036    0.6392863246700571 Mn
   0.5371823939448875    0.6472868405764792    0.8369275976992332 Mn
   0.3715519826036247    0.4997019433668548    0.3461799858332701 Mn
   0.4653530968913418    0.1674491484038181   -0.0221023979651964 Mn
   0.3638262093717690    0.5174212678777601   -0.0177013770050277 O
   0.2329950532454654    0.7211756403900010    0.3599555042250764 O
   0.1388583384159836    0.8373998500430373    0.9336455888131373 O
   0.3112506332790236    0.2038469874010544    0.2478401995543520 O
   0.3687953743436826    0.8765665037916253    0.9209385927437136 O
   0.3261605956628380    0.1006702578354149    0.7134432684025004 O
   0.3308340510600990    0.5202182850545105    0.6051159835351363 O
   0.5030521679116645    0.4576556808245352    0.0978106089548157 O
