Mg1 Mn2 O3
1.0
   3.5634662097745218    0.7997263706703269   -0.1649816428678062
   2.3469227978264646    5.9116811937549008   -1.0128199047608568
  -1.2773499282953851   -1.5907473787634945    5.5403985008357344
Mg Mn O
1 2 3
direct
  -0.0454665120923602    0.6689494914014392   -0.0215441679072458 Mg
  -0.0162157480116107    0.2543424187860404    0.2076024348421777 Mn
   0.2404111700402513    0.6794144338891388    0.5809874727296598 Mn
   0.9105487564722209    0.5166883457780944    0.5996833117867795 O
   0.2908275131856081   -0.1524830221026450   -0.0011269781608752 O
   0.2884825766843681    0.4322330173003036    0.1710811985215161 O
