Mg1 Mn6 O8
1.0
   6.3056423436147524   -0.3356315677305963   -1.0272370141760920
  -1.1977342945110654    6.8632312239095974   -2.6565168495410525
   0.0896780579667601   -0.1311955820788351    7.1040610351292086
Mg Mn O
1 6 8
direct
  -0.2604259207443883   -0.1404843047778842    0.0145274438158830 Mg
   0.3137739924188949    0.0279308170692400    0.2354510364039966 Mn
   0.7089297124619919    0.8524213380920934    0.5187955413022580 Mn
   0.1470744630087831    0.5415643256947975    0.0257509107311316 Mn
   0.2859179096079957    0.7200315784602258    0.6215365117870891 Mn
   0.4385078851208280    0.3396199236175705    0.7254070369825730 Mn
   0.0005243750604813    0.3324635168966433    0.3868135454535403 Mn
   0.4848015317290572    0.0590015456515019    0.5361634429768204 O
   0.4382591317329101    0.7756049701761820    0.0994895350453459 O
   0.1251896793465109    0.5598278647694775    0.3089858630845091 O
  -0.0004319557666539    0.0451746387253682    0.1926849036840235 O
   0.6205085681880986    0.7384638656009367    0.7222962223498317 O
   0.1675352444831444    0.4535735172710231    0.7109199747319545 O
   0.3200599581554103    0.0346958974937936    0.6556176734461789 O
   0.6385737346042178    0.7335684356899919    0.1955934349422160 O
