Mg2 Mn1 O3
1.0
   3.1773598491524737   -0.2480563014854275   -0.0897568803218704
  -2.7879625702522324    5.3598982662974803   -1.5745923572678167
   0.3038640647544676   -0.6212995693235880    5.5917140093028967
Mg Mn O
2 1 3
direct
   0.0780971481758120    0.5232098375444756   -0.0424895772202267 Mg
   0.2106631533325754    0.0670681045660465   -0.0631519203723044 Mg
   0.4324029128584329    0.4924886510581477    0.5022043340977246 Mn
   0.4727564685028723    0.8233561717439494    0.8463996066165053 O
   0.3927969337632577    0.3209140157390654    0.7635825567585693 O
   0.8442603200354299    0.3941597901665348    0.2371052293316972 O
