Mg2 Mn1 O3
1.0
   2.7669174087146171   -0.1235837905151237    1.4008282808628458
   2.5214859152579061    5.0549903103289644   -1.5978838790005059
   0.8271156564593849   -0.5804307683954238    6.6075170314640435
Mg Mn O
2 1 3
direct
   0.4227905146721992   -0.2713481666785964   -0.2376177393518606 Mg
   0.2020193608747067    0.1256006341583491    0.5510225036687330 Mg
  -0.3678817790351309    0.6069979410433194    0.1557324852389523 Mn
   0.0124099673067636    0.8679468160204965    0.1655182559281419 O
   1.3765030063122807    0.3750616872806175    0.7315469570581822 O
   0.1042863592442299    0.8005906662577179    0.5868418982281296 O
