Mg2 Mn1 O3
1.0
   5.7152830453859744   -1.3925382819741099    1.3782914588154274
  -1.6723150683794186    5.8674838419540318    0.6208289168197131
   0.4311045087120481    0.1424074937352585    4.5224963727156844
Mg Mn O
2 1 3
direct
   0.3895651910398838    0.6978981373938883    0.7784143273850799 Mg
   0.9354252153528545    0.5991910468883002    0.7041648875185803 Mg
   0.2916560245069815    0.2329410038079512   -0.3024354365608729 Mn
   0.0598163242064716    0.3817492238571436    0.8204930750689254 O
   0.6225470113758130    0.5655490720544435    0.6665245119628852 O
   0.2668902997509516    0.9149714950581616    0.6565964156277770 O
