Mg1 Mn1 O2
1.0
   3.7557603486932036    0.3788674824722559    1.2949064656279496
  -0.1200286106676007    3.7634760854284144    3.6115803112756746
  -0.2913703780463760    0.0206424341158048    5.1908937990888946
Mg Mn O
1 1 2
direct
   0.4397333287800166    0.3952860530175866    0.8577548622338975 Mg
  -0.0190658402314149    0.8343810529273555    0.2999346957966051 Mn
   0.4263254222225412    0.9117525052074567    0.3743844757841082 O
   0.9786114535589521    0.3347415034413992    0.8007486850309079 O
