Mg2 Mn1 O3
1.0
   5.8143520670257161    1.3734379975204425    1.3269742313024873
   0.8527264473486171    3.8071958156148322    4.1043772361914579
  -0.2895533485611719   -0.0368405806281798    6.1522513116696294
Mg Mn O
2 1 3
direct
   0.4926722513485742    0.4341620093787293    0.5497176485667005 Mg
   0.0761457629930455    0.1917722415861459   -0.0936532323886028 Mg
   0.1105618824259421    0.1469680048520323    0.4887051569152229 Mn
   0.2037516586454454    0.9382652118263529    0.3197287870747654 O
   0.8310605242930051    0.2820698329095552    0.6660962051977124 O
   0.3468352366679491    0.1135152325012201    0.7095938028063560 O
