Mg1 Mn1 O3
1.0
   5.0305920375818971   -0.0285249853083207    0.3283722013398969
   2.0984512568378979    2.4347074361700414    0.4425521958135799
   0.4349142308790435    0.5305981181100887    8.3213100461032816
Mg Mn O
1 1 3
direct
   0.1261336653097888    0.1362158496012673   -0.1033897928244621 Mg
   0.6169036640141664    0.2957477600956148    0.7116936852365898 Mn
   0.6286842520942331    0.4930944088803761    0.9131688514790351 O
   0.6205293771406717    0.8369918184877849    0.5961947990054346 O
   0.1199652817132583    0.7186158087424720    0.7547151160128509 O
