Mg1 Mn1 O2
1.0
   3.7520042206016262    0.3751176316031560    1.2918840657484838
  -0.1138372729799700    3.7711826813955294    3.5993385736734314
  -0.2894058505194371    0.0237829701686783    5.1860988184663128
Mg Mn O
1 1 2
direct
   0.4381598936111492    0.3918963153535802    0.8563322909436634 Mg
  -0.0207163849830385    0.8312705527602511    0.2988315772454067 Mn
   0.4241230004034682    0.9087374152796359    0.3726242991281172 O
   0.9765100908061048    0.3313300913222905    0.7988239180683898 O
