Mg2 Mn1 O4
1.0
   3.2553210323443218    0.3077168665927417    1.1998990303039041
   0.0635727021600640    3.9910331171673770    3.8591566090695917
  -0.4283642728246607   -0.3023379195248840    6.3199925566387716
Mg Mn O
2 1 4
direct
   0.4140855180723644    0.5253207106112229    0.4489604479766810 Mg
  -0.2134359141938841    0.2895952429232235   -0.0530608319254930 Mg
   0.1426866562741815    0.0769563287584784    0.4380097620860275 Mn
   0.2164444170153936    0.6409480009473575    0.7239524731248280 O
   0.9504908822789334    0.2871768449339585    0.6119674030932416 O
   0.6175939836266996    0.2694890364759072    0.2972147785241163 O
   0.3167228011527757    0.0061250772683744    0.1669967725885690 O
