SYSTEM = MgMnO GGA+U relaxation
ISTART = 0
ICHARG = 2
ENCUT  = 520
EDIFF  = 1E-5
EDIFFG = -0.02
NSW    = 200
IBRION = 2
ISIF   = 3
ISPIN  = 2
MAGMOM = 3*0.6 3*5.0 6*0.6
LDAU   = .TRUE.
LDAUTYPE = 2
LDAUL  = -1 2 -1
LDAUU  = 0.0 3.9 0.0
LDAUJ  = 0.0 0.0 0.0
LWAVE  = .FALSE.
LCHARG = .FALSE.
ALGO   = Fast
PREC   = Accurate
