Mg3 Mn3 O6
1.0
   3.3167074579335316   -0.0533386018238386   -1.3990400993298642
  -1.4403246984808786    8.2373150987737898   -2.2097477220762176
  -1.2787620382940756    0.0842163197940202   11.5114960543811975
Mg Mn O
3 3 6
direct
   1.1105955953210649    0.5353456362820627    0.8181240590528752 Mg
  -0.0988178572450232    0.4119896125979607    0.0148172344281901 Mg
   0.2561825140758587    0.3394299665528029    0.6132819488745005 Mg
   0.3128193036115700    0.7065076246456747    0.6127242796835305 Mn
   0.4355156077194195    0.4617581853501531    0.3980167201660826 Mn
   0.0439487393159718    0.1645387536877909   -0.1869388445313436 Mn
   0.3816344982581328    0.4831637441767290    0.9948399517843142 O
   0.9838373599357698    0.3887135225203304    0.4363152690518657 O
   0.6817851698701322    0.6955522865916320    0.5303095635170386 O
   0.6762022970024407    0.1814093712554334    0.8958394149232540 O
   0.8489311301302607    0.2987645115204738    0.6766296525416039 O
   0.5151519627044537    0.5766227043542963    0.7531796889054178 O
