Mg1 Mn6 O8
1.0
   6.3626492927869833   -0.0968025150052730   -0.6026971509611062
  -0.9341591399621459    8.0694636326420621   -2.8608342180007011
   0.2285881870632029   -0.3845603042836333    6.8879108227065906
Mg Mn O
1 6 8
direct
   0.2901782310618955    0.0946232113174896    0.2042158864896885 Mg
   0.6105143939058031    0.8091935048720980    0.9405868697411164 Mn
   0.2764282855583619    0.0840715119954856    0.7824705683632137 Mn
   0.0723573828841207    0.4424500405549169    0.0973363854060120 Mn
   0.1916493996210504    0.6648918731868747    0.6933004553807977 Mn
   0.5100551495171084    0.3874234402626862    0.6826585625748094 Mn
   0.4824126657677604    0.5808005534573164    0.3310287688087339 Mn
   0.2816637962955557    0.5357185279478585   -0.0944348557111649 O
   0.1695470982203886    0.6306331453665084    0.3870969651060700 O
   0.2756594941207955    0.2691321028347818    0.0958569844819427 O
   0.5009665610178661    0.1392267521253019    0.4457767789013451 O
   0.3245257691193578    0.9151296139390539    0.9339257300870322 O
   0.2795964702010904    0.1557298074321357    0.5268564960438671 O
   0.5598984874505060    0.6138208301838052    0.6385887656146132 O
   0.4577609180344377    0.6401241364723971    0.0630308407435441 O
