Mg2 Mn1 O4
1.0
   3.6907622730373721    0.4181363451791246    1.4129525863622172
   0.3626321513576579    3.9066772029218133    3.5104093307485709
   0.1119006099128796    0.1980405501532835    5.2667291534968790
Mg Mn O
2 1 4
direct
   0.3735898876052541    0.4928982710279067    0.7108711321691137 Mg
  -0.1022069053406201   -0.0296046833326062    0.1880408100026382 Mg
   0.1338161426551276    0.2463091254532213    0.4354058566822986 Mn
   0.3515246043820874    1.0162010419636054    0.2323163725375657 O
   0.9179255783393033    0.4497161350516375    0.6651931441455663 O
   0.6355495544625381    0.2236887744459163    0.4578578757285784 O
   0.1365448176995636   -0.2790278680248564   -0.0393446290709454 O
