Mg1 Mn1 O2
1.0
   3.6860114301243128    0.3254696130903021    1.2717034098281235
  -0.1427829720501828    3.7780058661677587    3.5539472506506660
  -0.3097864430857891   -0.0098523127656033    5.1718376020824905
Mg Mn O
1 1 2
direct
   0.4357947231336571    0.3845188818503226    0.8545333101542738 Mg
  -0.0250810389980675    0.8296264403896136    0.2987566352399387 Mn
   0.4203654223427251    0.9051174852577429    0.3732836667522685 O
   0.9775501875549968    0.3277476094923441    0.7922067897831017 O
