Mg1 Mn1 O2
1.0
   3.7551650676825497    0.3781949446879834    1.2943327059267269
  -0.1185904593932100    3.7651392594572251    3.6091797728870674
  -0.2908281275370043    0.0216660734163033    5.1899897681989451
Mg Mn O
1 1 2
direct
   0.4393684517831960    0.3945583076529274    0.8574449259998594 Mg
  -0.0194434275138186    0.8336812487431996    0.2996371943414761 Mn
   0.4258429671661210    0.9110772996574971    0.3740290363920595 O
   0.9781672371209296    0.3339772122304646    0.8003364472326610 O
