Mg1 Mn1 O3
1.0
   3.5296006095313790    0.5057436000642537    1.3472919083300166
  -0.2288253012720977    4.0375438939594215    4.1851915732897487
  -0.1250947041590716    0.9443235236078095    5.0964739724591022
Mg Mn O
1 1 3
direct
   0.3969726422235588    0.4162196831058477    0.9715710467284797 Mg
   0.0789099777243931    0.8716144855900012    0.1343896763679531 Mn
   0.5489704145935050    0.8500079455417717    0.2213469362869056 O
   0.9659335339173064    0.3888754914945422    0.8515657356341785 O
   0.2498736045619812   -0.0341551382706526    0.6844674594177538 O
