Mg1 Mn1 O2
1.0
   3.7558238248523375    0.3789709941688569    1.2949952481143798
  -0.1202552429006337    3.7631961244411807    3.6119444581950906
  -0.2914729043447516    0.0204467369433619    5.1910620000322858
Mg Mn O
1 1 2
direct
   0.4397934951936707    0.3954041850321386    0.8577992329323240 Mg
  -0.0190098585123169    0.8344958259196809    0.2999917907911627 Mn
   0.4264018128194828    0.9118646479531026    0.3744380885980472 O
   0.9786856753606967    0.3348547033865994    0.8008130418934788 O
