Mg2 Mn1 O4
1.0
   3.1057525476824415    0.1377800548458966    1.2493412260169010
   0.0314617790253306    5.0483236540600673    4.0663579940122458
  -0.1276457100866762    0.2240908218375187    5.5885039631565281
Mg Mn O
2 1 4
direct
   0.4794404907792169    0.5810528128651457    0.3867906491575503 Mg
  -0.1298442035069179    0.0745677121606299    0.1514478675550360 Mg
   0.1129729119932760    0.0904757283569766    0.5978118143868403 Mn
   0.3067309335460682    0.9031987916375369    0.4123050431528971 O
   0.9183734546302184    0.3524858527996879    0.6750943692527550 O
   0.6486397938481976    0.2559991546318534    0.3676689547911961 O
   0.1059928597939848   -0.1859119409395846    0.0267370515083477 O
