Mg1 Mn1 O2
1.0
   3.7521428056551174    0.3752432914937182    1.2919796383344868
  -0.1140243212285003    3.7709479038542892    3.5997413509225225
  -0.2894530873976419    0.0237461714422510    5.1862527384088741
Mg Mn O
1 1 2
direct
   0.4382000651433633    0.3919999628761046    0.8563753669091252 Mg
  -0.0206757631720854    0.8313650916712484    0.2988636551070261 Mn
   0.4241998130621455    0.9088216677240023    0.3726742573958365 O
   0.9765728256434689    0.3314264106995208    0.7988822811753110 O
