Mg1 Mn3 O4
1.0
   5.4505908543997856    0.3536349759428803    0.1740871690086969
   1.2055238813217000    3.9444025339564326   -0.2608754432907296
   0.0319245895012764    0.5532771734106341    7.2709040024575593
Mg Mn O
1 3 4
direct
   0.1218885122738442    0.2730399117571546    0.4244140383794379 Mg
   0.7909708133367622    0.9545991858275873    0.5565075106692460 Mn
   0.5180003659774433    0.5856743905659682    0.2856291767410262 Mn
   0.3787274020133746    0.6529586058087657    0.6871852186213900 Mn
   0.0195047457726006    0.8907376221244210    0.7466556227347145 O
   0.5111826590571252    0.0881603584805595    0.3629578864205953 O
   0.7324056540936483    0.4791310126587008    0.5414088272926334 O
   0.1233650111536252    0.7707568076521374    0.3767048819430303 O
