Mg1 Mn1 O3
1.0
   3.5316703664794598    0.5015970910162886    1.3424390246907956
  -0.2299222777223860    4.0532000098571217    4.1708296011827759
  -0.1280961059702603    0.9498823762098245    5.0869555335186725
Mg Mn O
1 1 3
direct
   0.3959626746911738    0.4160440223369135    0.9699986431622777 Mg
   0.0766075073866427    0.8681083775457804    0.1351564820668227 Mn
   0.5485139451836548    0.8480072609188425    0.2210702446954680 O
   0.9655718565955570    0.3881168202503716    0.8487455075166274 O
   0.2501584102666939   -0.0364263628812379    0.6839366132416231 O
