Mg2 Mn1 O4
1.0
   3.0517129757748074    0.0825106337359510    1.2906700051660296
   0.0072949124786550    5.0660739078458992    4.0484281574090817
  -0.1139159276775061    0.2418807945984988    5.6388149090292350
Mg Mn O
2 1 4
direct
   0.4935490126164615    0.5854055664537824    0.3777656284561410 Mg
  -0.1171806456494694    0.0787745738632835    0.1485137518234426 Mg
   0.1052851386178906    0.0874528164884320    0.6032870390780684 Mn
   0.3054743938222828    0.9019575719256352    0.4161653228041235 O
   0.9161550166082445    0.3499817720494606    0.6775353171257357 O
   0.6577125406768679    0.2606108699099952    0.3630229077460159 O
   0.0817256709438939   -0.1879941866840600    0.0345312796734552 O
