Mg2 Mn1 O3
1.0
   5.3256553396530304    0.8393692603868824   -0.0439936926852294
   0.9098083469475003    5.3029632622080145   -0.2113169410139574
   0.0384111091893855    0.1421510386580583    3.1045621647476063
Mg Mn O
2 1 3
direct
  -0.1767721782072490    0.4223836529891335   -0.1207050835150339 Mg
   0.1361380371583410   -0.2671789621991043   -0.1305338158232371 Mg
   0.3308594165950393    0.2248024468060091    0.3728845144506296 Mn
   0.1295017998548595    1.0909756375002007    0.8791287351917557 O
   0.9579022912030902    0.5995998802529241    0.3746128219014763 O
   0.4667294474753347    0.4256522091592470    0.8682791980333583 O
