Mg1 Mn1 O3
1.0
   5.1394620808784728    0.7775605716772696    1.8718073719805310
  -0.7372274750691816    2.8126458077911951   -2.2937104024741366
   0.4641174850281828   -0.4670502556456506    5.2424180101400175
Mg Mn O
1 1 3
direct
   0.1767992533786406    0.4675792594194446    1.0052681172537534 Mg
   0.4609987868391551    0.4909050168104465    0.3947341046852206 Mn
   0.3331675901379396   -0.0214300697493690    0.4437938372409646 O
   0.3507114010612762    0.9727163853929616    0.9329136276587441 O
   0.7989886183708204    0.4714943856100471    0.2383046162762893 O
