Mg1 Mn1 O3
1.0
   3.4075145347967570   -0.2517052687704253   -0.2940425496232681
   0.6767920045971498    3.4608145087194164    0.1991399448655961
   0.0930028762380912   -0.0058070557125902    5.2836248250257336
Mg Mn O
1 1 3
direct
  -0.2876366848872816   -0.1987836792224249   -0.1496444540482066 Mg
   0.2627186927473903    0.2669963419991789    0.2938657540093214 Mn
   0.5662558021785036    0.3324466404139593    0.6680387553586328 O
   0.2320272799741487    0.7772300037584740    0.0514620544272327 O
   0.8073965317561710    0.0785070625693343    0.4992698688640939 O
