Mg2 Mn1 O3
1.0
   3.1757384107260869   -0.0082012957497122    0.0480585950795993
   0.0722464083501989    5.1834750795463265   -1.5864856764930360
  -0.0660710316120134   -0.4482449600039309    4.2254468089091892
Mg Mn O
2 1 3
direct
   0.3346483586814294    0.8268670991444284    0.3949731130059242 Mg
  -0.1665905791747012    0.1153786757511090    0.0382991555223317 Mg
   0.8300159184877892    0.5160656579968058    0.7394113905929955 Mn
   0.3341832245931877    0.8422348500431873    0.9029237051694209 O
   0.8316533127246002    0.1028343618150342    0.5331066952853960 O
   0.8332175181029736    0.5244909875671429    0.2449449833650256 O
