Mg2 Mn1 O3
1.0
   5.7191298563154342    1.2113313496112714    1.1959929854574047
   0.6430854826420758    3.6097712854181823    3.7761984276399563
  -0.4663648935486589   -0.4890022134343699    6.1439274352694540
Mg Mn O
2 1 3
direct
   0.4871742890139280    0.4538225283489226    0.5528942375618965 Mg
   0.0941242643733957    0.1533516975199155   -0.0706455558063947 Mg
   0.0963028414194044    0.1637642845234610    0.4837245521770133 Mn
   0.2120536566086824    0.9520859792633662    0.3054607632219473 O
   0.8310949431994388    0.3021771811949490    0.6631455350386040 O
   0.3512150614421155    0.1024794901199718    0.7194451765824108 O
