Mg2 Mn1 O4
1.0
   3.6050651442156418    0.1792639558348190    1.3663029181644730
   0.1618098816253711    4.4131487480077070    3.5121095565179212
  -0.1412826746387399   -0.4448072161009829    5.9437065762720582
Mg Mn O
2 1 4
direct
   0.3971160088123739    0.3943446385710757    0.6154141607378228 Mg
  -0.2097936333224393    0.0799935167099147    0.0714311132919527 Mg
   0.1295035843752621    0.1517961895789547    0.3875292196303142 Mn
   0.3247852509883815    0.7866378580168484    0.5495397172143835 O
   0.9328974090532175    0.2584238537371691    0.6560523978752406 O
   0.5993831963597378    0.2755131708051070    0.3123198141508254 O
   0.2713029320268275    0.1557278864251859    0.0463091195165611 O
