Mg2 Mn1 O4
1.0
   3.1894184612801371    0.1931129326987542    1.2472046015907343
   0.0607961063870808    5.0477843467808841    4.0530630729775154
  -0.1345783816567513    0.2183890734073604    5.5353694553726340
Mg Mn O
2 1 4
direct
   0.4847219770836684    0.5814304829871677    0.3822893036216407 Mg
  -0.1372880720492814    0.0733843816260263    0.1517035092737764 Mg
   0.1171523781769421    0.0922979137923350    0.5935666707149666 Mn
   0.3137666843249000    0.9092244611492374    0.3977405547971445 O
   0.9354845229212109    0.3564322131030725    0.6703233465623216 O
   0.6491882916837916    0.2411604842975994    0.3875334259864267 O
   0.0784430547176030   -0.1905191002366522    0.0288356707469778 O
