Mg1 Mn2 O3
1.0
   4.5353936218931361   -0.0539597146191123    2.8273137764644796
   0.6640529519097469    2.9600698066426379   -0.8575449683489583
  -0.0385814407041006   -0.2346170859901655    6.3250028557431746
Mg Mn O
1 2 3
direct
   0.3732152723089522    0.2977721827336138    0.9309658246758232 Mg
   1.0404568117388371    0.6554951647579891    0.7513995785334685 Mn
   0.7118614814568371    0.4471008367690820    0.2999319334713225 Mn
   0.0999763749704949    0.9002614709674034    1.0901355009708469 O
   0.7320842457958151    0.2777496644661912   -0.0657381506591392 O
   0.4212784528442499    0.0936867553083119    0.5689932908083309 O
