Mg1 Mn1 O3
1.0
   3.5221852348813112    0.4857121067559730    1.3153150008122148
  -0.2500782262167455    4.0210259251256737    4.1365469608354282
  -0.1610473819862760    0.8993194817004632    5.0740175455294851
Mg Mn O
1 1 3
direct
   0.3971207352496380    0.4198351640795666    0.9668697763356209 Mg
   0.0774318402092178    0.8640604608697288    0.1395460552679659 Mn
   0.5420379757059347    0.8452618430393080    0.2266768882244883 O
   0.9666814013634092    0.3895462209441910    0.8443249230912625 O
   0.2546956416482682   -0.0322454603763785    0.6828187963041716 O
