Mg2 Mn1 O4
1.0
   5.8346611461858631    0.2015381746608997   -2.3881079354655266
   1.1762599418448327    3.6576389241060601   -0.1734254509490847
   0.2119929660179758    0.0786768129325241    3.9226814835324721
Mg Mn O
2 1 4
direct
   0.1786582335344609    0.4053696549710442    0.8933323601002754 Mg
  -0.0820054109269210    0.0444472344409093    0.1752820365551900 Mg
   0.4053129509737084    0.7906182189912001    0.5572386934060931 Mn
   0.0572645499474225    0.4720298097564968    0.3410290056721027 O
   0.2130404749165235    0.8843878329460300    0.9719115774811328 O
   0.5608678612120266    0.1194052753098946    0.9165980731593113 O
   0.6695804222650212    0.2700571049895205    0.6867873058544613 O
