Mg1 Mn2 O3
1.0
   3.0331256993495108   -0.2899427487454267    0.9853498497097583
  -1.4088399628568147    6.1533219112605844    1.4963144325645703
  -1.0111436212469735    0.0900263506441363    5.9547386187828737
Mg Mn O
1 2 3
direct
   0.0215872448778924   -0.1204221822576195    0.4873537573457609 Mg
   0.3136390449628033    0.3999176773692570    0.5425608037128533 Mn
  -0.1967272609827587    0.2457393315692511    0.0788098697248211 Mn
   0.3743780348289971    0.2435403551726268    0.8663941414270904 O
   0.1980889153919234    0.2026035884483678    0.3328117762045208 O
   0.4582202603328973    0.7296612265712531    0.4717416322910313 O
