Mg1 Mn6 O8
1.0
   6.3187190721247459   -0.2202022939914952   -0.7240261234889250
  -1.0234921754782140    6.6285567168936623   -2.7060202115817944
   0.2777376108896058    0.1033099480873338    7.7004080577920302
Mg Mn O
1 6 8
direct
   0.1316173498826430    0.2113049298951691    0.0007790039689313 Mg
   0.7252188095219126    0.6614535438763699    0.4332921992886307 Mn
   0.4326570286389746   -0.0690498283089582    0.7080440814194462 Mn
   0.1135137596359960    0.6489125059365257    0.0985762580283551 Mn
   0.4293446648453443    0.4795264743619087    0.7978549120130488 Mn
   0.2210147860616127    0.4922351724486473    0.4059315682846681 Mn
   0.4567335978548314    0.0687849984580334    0.3137192234368817 Mn
   0.4516346963894745    0.7493679894219346    0.1373944495810565 O
   0.0174856804264516    0.6753860903917474    0.3541174793687222 O
   0.2119097897651981    0.1851804702651655    0.2271407807978514 O
   0.6221175435873824    0.0834099328824155    0.5742908464720439 O
   0.1404043449971899    0.3866113228240708    0.8742083440511267 O
   0.4224952932898124    0.1707467637215928    0.6103425717648032 O
   0.5045130443069316    0.6437033026302329    0.6227422322117101 O
   0.4443269069651758    0.6061650933538882    0.2370448251318942 O
