Mg1 Mn2 O4
1.0
   3.1654517743299149    0.0241458181285398    0.1886885451431534
   2.3948888348631887    5.1278034055380051   -1.2878359557206944
  -0.7465925166686287   -0.5236091085578608    5.1302208065994259
Mg Mn O
1 2 4
direct
   0.7602828546537880    0.7461060788585374    0.1526202252293103 Mg
   0.7773225706642410    0.3616381715957447    0.4867424904014296 Mn
   0.2623468922999708    0.0943509089795917    0.9051861640604251 Mn
   0.6115758179144426    0.2090437316009925    0.7265038349993888 O
   0.1206233096236412    0.4333770298837489    0.2481067800902129 O
   0.6212733338643468    0.7124654878866121    0.7555050429874358 O
   0.0756244975823134   -0.0086533541791913    0.2066299451657653 O
