Mg2 Mn1 O4
1.0
   5.1325423971411581    1.0931401579488120    1.5300592680089320
   0.8624618477914315    4.1287979457773725    3.6077308581540284
   0.3242352081649768    0.7412842700860452    4.7666938672903489
Mg Mn O
2 1 4
direct
   0.5304516407660129    0.6383434233658950    0.2709318538492246 Mg
  -0.1181742895055645   -0.0455066746269917    0.2769275860454933 Mg
   0.2041626150072082    0.1941747371976982    0.5042804812327908 Mn
   0.2149127102521299    1.0546339063339596    0.2622506162074272 O
   0.8250907176104703    0.4255595272237487    0.6172164261056263 O
   0.5822200987856800    0.0623569532248614    0.5945066463232067 O
   0.2010127745136734   -0.2829572837176021    0.0740053950912754 O
