Mg2 Mn1 O4
1.0
   3.1980891869953632    0.1804411885404738    1.2239335297228799
   0.0514649216084074    5.0259933002921677    4.0332200518522470
  -0.1482249151542577    0.2329615673559692    5.5304724781310712
Mg Mn O
2 1 4
direct
   0.4830395007381300    0.5793508592417439    0.3858778322393760 Mg
  -0.1380031871961585    0.0702974222839266    0.1531604516555196 Mg
   0.1224234597662146    0.0930739268205986    0.5915441199257543 Mn
   0.3123868057363381    0.9084320833225190    0.3999828374584770 O
   0.9372827931675541    0.3558151950339773    0.6699936812693579 O
   0.6510163031523237    0.2447601890212604    0.3816380195070503 O
   0.0729942307555949   -0.1914557375135821    0.0275942823880377 O
