Mg2 Mn1 O3
1.0
   5.0358585206537292   -0.5153972239327821    7.4326027818695000
   1.6838763327157906    3.4575249012178610    6.3604174820262456
   1.1573230967704231    0.1655374702828319    7.5644693066032556
Mg Mn O
2 1 3
direct
   0.1714370880142269    0.7457391537447746    0.3031000252150354 Mg
   0.0786743377347443   -0.2306037955583634   -0.2026411457889577 Mg
   0.6144290939035235    0.1744572142505976    0.6899292807989847 Mn
   0.6703117583180375    0.7054653726304587    0.8487134733300759 O
   0.5747055320088166    0.7620764447503907    0.3269875194809458 O
   0.1128299497627512    0.1644151824118891    0.2091450894256670 O
