Mg1 Mn1 O3
1.0
   5.6766729568034977    0.3384445829800235    2.1760636761400307
  -1.6245076437807429    2.5184352274159898   -0.4293617350852122
   0.5809304909824485    0.6823872269398688    5.3389031495275399
Mg Mn O
1 1 3
direct
  -0.0955216040114377    0.1881494478802695    0.4948449095718350 Mg
   0.5830453025435489    0.3551778485043556    0.1562188923415825 Mn
   0.8402680068785257    0.5803839835181124    0.2764117645615771 O
   0.7808779544227437    0.6160757118362410    0.7900818417411748 O
   0.3459491229759981    0.6405323243548420    0.3077588545360196 O
