Mg1 Mn1 O2
1.0
   3.7589579205930570    0.3814545238517941    1.2976275406834601
  -0.1247619156705055    3.7572225218459447    3.6197555954903864
  -0.2925393204963628    0.0165940871649340    5.1944085473820767
Mg Mn O
1 1 2
direct
   0.4408944984351190    0.3980072391026625    0.8588699660866155 Mg
  -0.0178330181577214    0.8369406441914066    0.3011842290210740 Mn
   0.4284545010538831    0.9139301163844761    0.3752760431551102 O
   0.9800442794989556    0.3375143973929127    0.8023852416170358 O
