
     Program PWSCF v.7.5 starts on 21Apr2026 at 16:33:28 
        Git branch: HEAD
        Last git commit: 770a0b2d12928a67048e2f3da8d10d057e52179e-dirty
        Last git commit date: Tue Aug 19 09:57:12 2025 +0000
        Last git commit subject: Merge branch 'QE-7.5-RC' into 'master'

     This program is part of the open-source Quantum ESPRESSO suite
     for quantum simulation of materials; please cite
         "P. Giannozzi et al., J. Phys.:Condens. Matter 21 395502 (2009);
         "P. Giannozzi et al., J. Phys.:Condens. Matter 29 465901 (2017);
         "P. Giannozzi et al., J. Chem. Phys. 152 154105 (2020);
          URL http://www.quantum-espresso.org", 
     in publications or presentations arising from this work. More details at
     http://www.quantum-espresso.org/quote

     Parallel version (MPI & OpenMP), running on      16 processor cores
     Number of MPI processes:                 1
     Threads/MPI process:                    16

     MPI processes distributed on     1 nodes
     0 MiB available memory on the printing compute node when the environment starts
 
     Reading input from pw_hse_static.in

     Current dimensions of program PWSCF are:
     Max number of different atomic species (ntypx) = 10
     Max number of k-points (npk) =  40000
     Max angular momentum in pseudopotentials (lmaxx) =  4
     file Mn.pbe-spn-kjpaw_psl.0.3.1.UPF: wavefunction(s)  3P 3D renormalized
     file Mg.pbe-n-kjpaw_psl.0.3.0.UPF: wavefunction(s)  3S renormalized
     file O.pbe-n-kjpaw_psl.1.0.0.UPF: wavefunction(s)  2S 2P renormalized

     IMPORTANT: XC functional enforced from input :
     Exchange-correlation= HSE
                           (   1   4  12   4   0   0   0)
     EXX-fraction              =        0.25
     Any further DFT definition will be discarded
     Please, verify this is what you really want

     Message from routine setup :
     BEWARE: nonlinear core correction is not consistent with hybrid XC
 
     Subspace diagonalization in iterative solution of the eigenvalue problem:
     a serial algorithm will be used

     EXX: q-point mesh:     2    2    2
     EXX: setup a grid of 216 q-points centered on each k-point
     (set verbosity='high' to see the list)
 
     G-vector sticks info
     --------------------
     sticks:   dense  smooth     PW     G-vecs:    dense   smooth      PW
     Sum        2499    1245    391                86581    30627    5517
 
     Using Slab Decomposition
 


     bravais-lattice index     =            0
     lattice parameter (alat)  =       5.5965  a.u.
     unit-cell volume          =     487.6021 (a.u.)^3
     number of atoms/cell      =            7
     number of atomic types    =            3
     number of electrons       =        43.00
     number of Kohn-Sham states=           26
     kinetic-energy cutoff     =      60.0000  Ry
     charge density cutoff     =     480.0000  Ry
     cutoff for Fock operator  =     240.0000  Ry
     scf convergence threshold =      1.0E-06
     mixing beta               =       0.7000
     number of iterations used =            8  plain     mixing
     Exchange-correlation= HSE
                           (   1   4  12   4   0   0   0)
     EXX-fraction              =        0.25

     celldm(1)=   5.596457  celldm(2)=   0.000000  celldm(3)=   0.000000
     celldm(4)=   0.000000  celldm(5)=   0.000000  celldm(6)=   0.000000

     crystal axes: (cart. coord. in units of alat)
               a(1) = (   0.999997  -0.001773   0.001450 )  
               a(2) = (   0.503601   2.089496  -0.004299 )  
               a(3) = (   0.999985   1.073447   1.329624 )  

     reciprocal axes: (cart. coord. in units 2 pi/alat)
               b(1) = (  1.000381 -0.242253 -0.556789 )  
               b(2) = (  0.001407  0.477450 -0.386518 )  
               b(3) = ( -0.001087  0.001808  0.751450 )  


     PseudoPot. # 1 for Mn read from file:
     ..\..\pseudo\\Mn.pbe-spn-kjpaw_psl.0.3.1.UPF
     MD5 check sum: ba19e6d7ccbc12830efad05ba8577d9c
     Pseudo is Projector augmented-wave + core cor, Zval = 15.0
     Generated using &quot;atomic&quot; code by A. Dal Corso  v.6.2.2
     Shape of augmentation charge: PSQ
     Using radial grid of 1187 points,  6 beta functions with: 
                l(1) =   0
                l(2) =   0
                l(3) =   1
                l(4) =   1
                l(5) =   2
                l(6) =   2
     Q(r) pseudized with 0 coefficients 


     PseudoPot. # 2 for Mg read from file:
     ..\..\pseudo\\Mg.pbe-n-kjpaw_psl.0.3.0.UPF
     MD5 check sum: d3e4124f57d03672d8f0e29aa18e2cc4
     Pseudo is Projector augmented-wave + core cor, Zval =  2.0
     Generated using &quot;atomic&quot; code by A. Dal Corso  v.6.3
     Shape of augmentation charge: PSQ
     Using radial grid of 1129 points,  4 beta functions with: 
                l(1) =   0
                l(2) =   0
                l(3) =   1
                l(4) =   1
     Q(r) pseudized with 0 coefficients 


     PseudoPot. # 3 for O  read from file:
     ..\..\pseudo\\O.pbe-n-kjpaw_psl.1.0.0.UPF
     MD5 check sum: e99d9cef9b487d1ca56f5b95ecd0fd7a
     Pseudo is Projector augmented-wave + core cor, Zval =  6.0
     Generated using &quot;atomic&quot; code by A. Dal Corso  v.6.3
     Shape of augmentation charge: PSQ
     Using radial grid of 1095 points,  4 beta functions with: 
                l(1) =   0
                l(2) =   0
                l(3) =   1
                l(4) =   1
     Q(r) pseudized with 0 coefficients 


     atomic species   valence    mass     pseudopotential
     Mn               15.00    54.93800     Mn( 1.00)
     Mg                2.00    24.30500     Mg( 1.00)
     O                 6.00    15.99900     O ( 1.00)

     No symmetry found



   Cartesian axes

     site n.     atom                  positions (alat units)
         1        Mg     tau(   1) = (   1.1624094   1.6195780   0.4911931  )
         2        Mg     tau(   2) = (   1.1606866   0.3729429   0.1159149  )
         3        Mn     tau(   3) = (   1.6603959   0.7872234   0.8561181  )
         4        O      tau(   4) = (   1.1633329   2.3327218   0.6150860  )
         5        O      tau(   5) = (   1.6613964   1.4540223   0.9675887  )
         6        O      tau(   6) = (   1.1612758   0.9435756   0.4598169  )
         7        O      tau(   7) = (   1.6631455   2.8405215   1.3159087  )

     number of k points=   112  Marzari-Vanderbilt smearing, width (Ry)=  0.0200

     Number of k-points >= 100: set verbosity='high' to print them.

     Dense  grid:    86581 G-vectors     FFT dimensions: (  40,  90,  80)

     Smooth grid:    30627 G-vectors     FFT dimensions: (  27,  60,  60)

     Estimated max dynamical RAM per process >       5.78 GB
     EXX: ACE will be initialized later

     Check: negative core charge=   -0.000002

     Initial potential from superposition of free atoms

     starting charge      42.9976, renormalised to      43.0000
     Starting wfcs are   34 randomized atomic wfcs

     total cpu time spent up to now is        3.1 secs

     Self-consistent Calculation

     iteration #  1     ecut=    60.00 Ry     beta= 0.70
     Davidson diagonalization with overlap
     ethr =  1.00E-02,  avg # of iterations =  2.0

     total cpu time spent up to now is        8.4 secs

     total energy              =    -519.14781837 Ry
     estimated scf accuracy    <       2.62529057 Ry

     iteration #  2     ecut=    60.00 Ry     beta= 0.70
     Davidson diagonalization with overlap
     ethr =  6.11E-03,  avg # of iterations =  5.4

     total cpu time spent up to now is       16.5 secs

     total energy              =    -517.73353346 Ry
     estimated scf accuracy    <      33.17424634 Ry

     iteration #  3     ecut=    60.00 Ry     beta= 0.70
     Davidson diagonalization with overlap
     ethr =  6.11E-03,  avg # of iterations =  3.6

     total cpu time spent up to now is       22.5 secs

     total energy              =    -520.61697932 Ry
     estimated scf accuracy    <       1.13354779 Ry

     iteration #  4     ecut=    60.00 Ry     beta= 0.70
     Davidson diagonalization with overlap
     ethr =  2.64E-03,  avg # of iterations =  2.0

     total cpu time spent up to now is       28.2 secs

     total energy              =    -520.77875434 Ry
     estimated scf accuracy    <       0.16606193 Ry

     iteration #  5     ecut=    60.00 Ry     beta= 0.70
     Davidson diagonalization with overlap
     ethr =  3.86E-04,  avg # of iterations =  5.0

     total cpu time spent up to now is       35.9 secs

     total energy              =    -520.88578310 Ry
     estimated scf accuracy    <       0.06141076 Ry

     iteration #  6     ecut=    60.00 Ry     beta= 0.70
     Davidson diagonalization with overlap
     ethr =  1.43E-04,  avg # of iterations =  1.8

     total cpu time spent up to now is       41.1 secs

     total energy              =    -520.89287640 Ry
     estimated scf accuracy    <       0.01386667 Ry

     iteration #  7     ecut=    60.00 Ry     beta= 0.70
     Davidson diagonalization with overlap
     ethr =  3.22E-05,  avg # of iterations =  4.6

     total cpu time spent up to now is       47.6 secs

     total energy              =    -520.89650521 Ry
     estimated scf accuracy    <       0.00329340 Ry

     iteration #  8     ecut=    60.00 Ry     beta= 0.70
     Davidson diagonalization with overlap
     c_bands:  1 eigenvalues not converged
     ethr =  7.66E-06,  avg # of iterations =  8.6

     total cpu time spent up to now is       55.3 secs

     total energy              =    -520.89784009 Ry
     estimated scf accuracy    <       0.00138230 Ry

     iteration #  9     ecut=    60.00 Ry     beta= 0.70
     Davidson diagonalization with overlap
     c_bands:  1 eigenvalues not converged
     ethr =  3.21E-06,  avg # of iterations =  6.3

     total cpu time spent up to now is       62.1 secs

     total energy              =    -520.89815685 Ry
     estimated scf accuracy    <       0.00041226 Ry

     iteration # 10     ecut=    60.00 Ry     beta= 0.70
     Davidson diagonalization with overlap
     ethr =  9.59E-07,  avg # of iterations =  9.9

     total cpu time spent up to now is       71.0 secs

     total energy              =    -520.89846382 Ry
     estimated scf accuracy    <       0.00021508 Ry

     iteration # 11     ecut=    60.00 Ry     beta= 0.70
     Davidson diagonalization with overlap
     ethr =  5.00E-07,  avg # of iterations =  2.8

     total cpu time spent up to now is       76.6 secs

     total energy              =    -520.89848759 Ry
     estimated scf accuracy    <       0.00004482 Ry

     iteration # 12     ecut=    60.00 Ry     beta= 0.70
     Davidson diagonalization with overlap
     c_bands:  2 eigenvalues not converged
     c_bands:  1 eigenvalues not converged
     c_bands:  2 eigenvalues not converged
     c_bands:  3 eigenvalues not converged
     ethr =  1.04E-07,  avg # of iterations = 10.3

     total cpu time spent up to now is       85.4 secs

     total energy              =    -520.89852892 Ry
     estimated scf accuracy    <       0.00004353 Ry

     iteration # 13     ecut=    60.00 Ry     beta= 0.70
     Davidson diagonalization with overlap
     ethr =  1.01E-07,  avg # of iterations =  1.9

     total cpu time spent up to now is       90.6 secs

     total energy              =    -520.89853392 Ry
     estimated scf accuracy    <       0.00000166 Ry

     iteration # 14     ecut=    60.00 Ry     beta= 0.70
     Davidson diagonalization with overlap
     c_bands:  3 eigenvalues not converged
     c_bands:  2 eigenvalues not converged
     c_bands:  5 eigenvalues not converged
     c_bands:  3 eigenvalues not converged
     c_bands:  1 eigenvalues not converged
     c_bands:  1 eigenvalues not converged
     c_bands:  2 eigenvalues not converged
     c_bands:  4 eigenvalues not converged
     c_bands:  1 eigenvalues not converged
     c_bands:  3 eigenvalues not converged
     c_bands:  3 eigenvalues not converged
     c_bands:  4 eigenvalues not converged
     c_bands:  4 eigenvalues not converged
     c_bands:  3 eigenvalues not converged
     c_bands:  3 eigenvalues not converged
     c_bands:  2 eigenvalues not converged
     c_bands:  3 eigenvalues not converged
     c_bands:  1 eigenvalues not converged
     c_bands:  5 eigenvalues not converged
     c_bands:  3 eigenvalues not converged
     c_bands:  1 eigenvalues not converged
     c_bands:  3 eigenvalues not converged
     c_bands:  5 eigenvalues not converged
     c_bands:  3 eigenvalues not converged
     c_bands:  2 eigenvalues not converged
     c_bands:  2 eigenvalues not converged
     c_bands:  1 eigenvalues not converged
     c_bands:  2 eigenvalues not converged
     c_bands:  2 eigenvalues not converged
     c_bands:  5 eigenvalues not converged
     c_bands:  4 eigenvalues not converged
     c_bands:  4 eigenvalues not converged
     ethr =  3.85E-09,  avg # of iterations = 16.3

     total cpu time spent up to now is      104.5 secs

     total energy              =    -520.89854031 Ry
     estimated scf accuracy    <       0.00000109 Ry

     iteration # 15     ecut=    60.00 Ry     beta= 0.70
     Davidson diagonalization with overlap
     ethr =  2.53E-09,  avg # of iterations =  3.0

     total cpu time spent up to now is      110.0 secs

     End of self-consistent calculation

     Number of k-points >= 100: set verbosity='high' to print the bands.

     the Fermi energy is     7.5501 ev

!    total energy              =    -520.89854022 Ry
     estimated scf accuracy    <       0.00000038 Ry
     smearing contrib. (-TS)   =      -0.00552043 Ry
     internal energy E=F+TS    =    -520.89301979 Ry

     convergence has been achieved in  15 iterations

     Using ACE for calculation of exact exchange

     EXX grid:    30627 G-vectors     FFT dimensions: (  27,  60,  60)
     ACE projected onto    26 (nbndproj) and applied to    26 (nbnd) bands

     EXX: now go back to refine exchange calculation

     total cpu time spent up to now is    12463.6 secs

     Self-consistent Calculation

     iteration #  1     ecut=    60.00 Ry     beta= 0.70
     Davidson diagonalization with overlap
     c_bands:  1 eigenvalues not converged
     c_bands:  1 eigenvalues not converged
     c_bands:  1 eigenvalues not converged
     c_bands:  1 eigenvalues not converged
     c_bands:  2 eigenvalues not converged
     c_bands:  2 eigenvalues not converged
     c_bands:  2 eigenvalues not converged
     c_bands:  2 eigenvalues not converged
     c_bands:  1 eigenvalues not converged
     c_bands:  3 eigenvalues not converged
     c_bands:  1 eigenvalues not converged
     c_bands:  2 eigenvalues not converged
     c_bands:  1 eigenvalues not converged
     c_bands:  1 eigenvalues not converged
     c_bands:  1 eigenvalues not converged
     c_bands:  2 eigenvalues not converged
     c_bands:  1 eigenvalues not converged
     c_bands:  2 eigenvalues not converged
     c_bands:  1 eigenvalues not converged
     ethr =  2.53E-09,  avg # of iterations = 37.1

     total cpu time spent up to now is    12563.8 secs

     total energy              =    -480.95542366 Ry
     estimated scf accuracy    <       0.48085212 Ry

     iteration #  2     ecut=    60.00 Ry     beta= 0.70
     Davidson diagonalization with overlap
     ethr =  1.12E-03,  avg # of iterations =  6.4

     total cpu time spent up to now is    12580.0 secs

     total energy              =    -475.20854963 Ry
     estimated scf accuracy    <       7.79102717 Ry

     iteration #  3     ecut=    60.00 Ry     beta= 0.70
     Davidson diagonalization with overlap
     ethr =  1.12E-03,  avg # of iterations =  5.7

     total cpu time spent up to now is    12591.3 secs

     total energy              =    -475.76699167 Ry
     estimated scf accuracy    <       0.90443458 Ry

     iteration #  4     ecut=    60.00 Ry     beta= 0.70
     Davidson diagonalization with overlap
     ethr =  1.12E-03,  avg # of iterations =  2.0

     total cpu time spent up to now is    12599.0 secs

     total energy              =    -475.75633939 Ry
     estimated scf accuracy    <       0.53712291 Ry

     iteration #  5     ecut=    60.00 Ry     beta= 0.70
     Davidson diagonalization with overlap
     ethr =  1.12E-03,  avg # of iterations =  1.4

     total cpu time spent up to now is    12608.3 secs

     total energy              =    -475.69565371 Ry
     estimated scf accuracy    <       0.38940384 Ry

     iteration #  6     ecut=    60.00 Ry     beta= 0.70
     Davidson diagonalization with overlap
     ethr =  9.06E-04,  avg # of iterations =  2.0

     total cpu time spent up to now is    12615.7 secs

     total energy              =    -475.69683687 Ry
     estimated scf accuracy    <       0.09080349 Ry

     iteration #  7     ecut=    60.00 Ry     beta= 0.70
     Davidson diagonalization with overlap
     ethr =  2.11E-04,  avg # of iterations =  9.4

     total cpu time spent up to now is    12625.3 secs

     total energy              =    -475.72190640 Ry
     estimated scf accuracy    <       0.00592146 Ry

     iteration #  8     ecut=    60.00 Ry     beta= 0.70
     Davidson diagonalization with overlap
     ethr =  1.38E-05,  avg # of iterations =  5.1

     total cpu time spent up to now is    12637.9 secs

     total energy              =    -475.72259698 Ry
     estimated scf accuracy    <       0.00812889 Ry

     iteration #  9     ecut=    60.00 Ry     beta= 0.70
     Davidson diagonalization with overlap
     ethr =  1.38E-05,  avg # of iterations =  1.3

     total cpu time spent up to now is    12644.0 secs

     total energy              =    -475.72301188 Ry
     estimated scf accuracy    <       0.00276229 Ry

     iteration # 10     ecut=    60.00 Ry     beta= 0.70
     Davidson diagonalization with overlap
     ethr =  6.42E-06,  avg # of iterations =  1.5

     total cpu time spent up to now is    12652.0 secs

     total energy              =    -475.72164170 Ry
     estimated scf accuracy    <       0.00506916 Ry

     iteration # 11     ecut=    60.00 Ry     beta= 0.70
     Davidson diagonalization with overlap
     ethr =  6.42E-06,  avg # of iterations =  2.0

     total cpu time spent up to now is    12659.5 secs

     total energy              =    -475.72237790 Ry
     estimated scf accuracy    <       0.00010025 Ry

     iteration # 12     ecut=    60.00 Ry     beta= 0.70
     Davidson diagonalization with overlap
     c_bands:  1 eigenvalues not converged
     c_bands:  2 eigenvalues not converged
     c_bands:  4 eigenvalues not converged
     c_bands:  1 eigenvalues not converged
     ethr =  2.33E-07,  avg # of iterations = 14.8

     total cpu time spent up to now is    12693.4 secs

     total energy              =    -475.72261469 Ry
     estimated scf accuracy    <       0.00002081 Ry

     iteration # 13     ecut=    60.00 Ry     beta= 0.70
     Davidson diagonalization with overlap
     ethr =  4.84E-08,  avg # of iterations =  9.3

     total cpu time spent up to now is    12721.8 secs

     total energy              =    -475.72263545 Ry
     estimated scf accuracy    <       0.00000471 Ry

     iteration # 14     ecut=    60.00 Ry     beta= 0.70
     Davidson diagonalization with overlap
     c_bands:  1 eigenvalues not converged
     ethr =  1.09E-08,  avg # of iterations = 10.7

     total cpu time spent up to now is    12748.6 secs

     total energy              =    -475.72264154 Ry
     estimated scf accuracy    <       0.00000158 Ry

     iteration # 15     ecut=    60.00 Ry     beta= 0.70
     Davidson diagonalization with overlap
     c_bands:  1 eigenvalues not converged
     ethr =  3.68E-09,  avg # of iterations =  5.7

     total cpu time spent up to now is    12761.9 secs

     End of self-consistent calculation

     Number of k-points >= 100: set verbosity='high' to print the bands.

     the Fermi energy is     7.2138 ev

!    total energy              =    -475.72264200 Ry
     estimated scf accuracy    <       0.00000051 Ry
     smearing contrib. (-TS)   =      -0.00841645 Ry
     internal energy E=F+TS    =    -475.71422556 Ry

     convergence has been achieved in  15 iterations

     Using ACE for calculation of exact exchange
     ACE projected onto    26 (nbndproj) and applied to    26 (nbnd) bands
