Mg1 Mn1 O3
1.0
   3.5351156732213043    0.5212597863374046    1.3705762986950436
  -0.2116654665035354    4.0193300502078682    4.2118269948482956
  -0.1079361758848488    0.9473515314295697    5.1284586700392918
Mg Mn O
1 1 3
direct
   0.3941763642672384    0.4193324344037775    0.9668128336405680 Mg
   0.0830609175373560    0.8652173915697738    0.1403294331920032 Mn
   0.5469867730416703    0.8495393359171663    0.2236855969907660 O
   0.9645694836003023    0.3897789077363975    0.8518325682941409 O
   0.2534891933547765   -0.0276267407175431    0.6825481660557376 O
