Mg1 Mn1 O2
1.0
   4.1805755938044236    0.4407984666033312   -0.5154368388199140
   0.1705093989011237    4.1296097596492194   -0.0133378098814748
   0.1350214688599286   -0.0013462331977463    3.9065098211248257
Mg Mn O
1 1 2
direct
  -0.0571727601954416    0.5357935151255350   -0.0020728038264744 Mg
   0.8033236289604335    0.0555957532619576    0.4840264365591752 Mn
   0.8101800212381282    0.5550064414157836    0.4838339560727994 O
  -0.0239696437317153    0.0300610958503164    0.0007119809019156 O
