Mg2 Mn1 O3
1.0
   5.4893226848051260    1.3248324688190929    1.3904210938072981
   0.7364638223899812    3.6948086720174791    4.4978848346193274
   0.0163991427336192    0.6690928680072056    5.8769991652087130
Mg Mn O
2 1 3
direct
   0.4955016151355779    0.5002370697838158    0.4254299405980898 Mg
   0.0404140132061888    0.3509909771182056   -0.2006772388752380 Mg
   0.1532649453906456    0.0408525188807275    0.5782432000264510 Mn
   0.1462206653779958    0.8599793056196471    0.4092919178964192 O
   0.8325846348222954    0.3415200660054306    0.6019451658480462 O
   0.3855396362478803   -0.0011425186765498    0.8164119041784756 O
