Mg2 Mn1 O4
1.0
   3.0982355446714975   -0.2450705574513389    1.1617577653946676
  -0.2096938429560855    3.8486955196035786    3.2947519159670877
  -0.4445382082678155   -0.9477409525013653    6.0977921365370849
Mg Mn O
2 1 4
direct
   0.3838352375373112    0.3945290425732011    0.6643685079096138 Mg
  -0.2576796296601799   -0.0970137838904905    0.1017963311689050 Mg
   0.1206698054100355    0.1789132280587047    0.3667914470579524 Mn
   0.4779478588009309    0.8505144663463258    0.4834967683515785 O
   0.9194270426266381    0.1621996172630450    0.6908036054128124 O
   0.5859394074065365    0.4586167215914589    0.2692974274761096 O
   0.2149857799903757    0.1538902437746040    0.0615192250568096 O
