
     Program PWSCF v.7.5 starts on 18Apr2026 at 12:45: 2 
        Git branch: HEAD
        Last git commit: 770a0b2d12928a67048e2f3da8d10d057e52179e-dirty
        Last git commit date: Tue Aug 19 09:57:12 2025 +0000
        Last git commit subject: Merge branch 'QE-7.5-RC' into 'master'

     This program is part of the open-source Quantum ESPRESSO suite
     for quantum simulation of materials; please cite
         "P. Giannozzi et al., J. Phys.:Condens. Matter 21 395502 (2009);
         "P. Giannozzi et al., J. Phys.:Condens. Matter 29 465901 (2017);
         "P. Giannozzi et al., J. Chem. Phys. 152 154105 (2020);
          URL http://www.quantum-espresso.org", 
     in publications or presentations arising from this work. More details at
     http://www.quantum-espresso.org/quote

     Parallel version (MPI & OpenMP), running on      16 processor cores
     Number of MPI processes:                 1
     Threads/MPI process:                    16

     MPI processes distributed on     1 nodes
     0 MiB available memory on the printing compute node when the environment starts
 
     Reading input from pw_relax.in

     Current dimensions of program PWSCF are:
     Max number of different atomic species (ntypx) = 10
     Max number of k-points (npk) =  40000
     Max angular momentum in pseudopotentials (lmaxx) =  4
     file Mg.pbe-n-kjpaw_psl.0.3.0.UPF: wavefunction(s)  3S renormalized
     file O.pbe-n-kjpaw_psl.1.0.0.UPF: wavefunction(s)  2S 2P renormalized
     file Mn.pbe-spn-kjpaw_psl.0.3.1.UPF: wavefunction(s)  3P 3D renormalized
 
     Subspace diagonalization in iterative solution of the eigenvalue problem:
     a serial algorithm will be used

 
     G-vector sticks info
     --------------------
     sticks:   dense  smooth     PW     G-vecs:    dense   smooth      PW
     Sum        2523    1255    391                88591    31311    5521
 
     Using Slab Decomposition
 


     bravais-lattice index     =            0
     lattice parameter (alat)  =       5.5903  a.u.
     unit-cell volume          =     498.6076 (a.u.)^3
     number of atoms/cell      =            7
     number of atomic types    =            3
     number of electrons       =        43.00
     number of Kohn-Sham states=           26
     kinetic-energy cutoff     =      60.0000  Ry
     charge density cutoff     =     480.0000  Ry
     scf convergence threshold =      1.0E-06
     mixing beta               =       0.7000
     number of iterations used =            8  plain     mixing
     energy convergence thresh.=      1.0E-04
     force convergence thresh. =      1.0E-03
     press convergence thresh. =      5.0E-01
     Exchange-correlation= SLA  PW   PBX  PBC
                           (   1   4   3   4   0   0   0)
     nstep                     =           50

     Hubbard projectors: ortho-atomic
     Hubbard parameters of DFT+U (Dudarev formulation) in eV:
     U(Mn-3d) =  3.9000

     Internal variables: lda_plus_u = T, lda_plus_u_kind = 0

     Internal variables: orbital_resolved = F, hub_pot_fix = F, apply_U =  F

     celldm(1)=   5.590286  celldm(2)=   0.000000  celldm(3)=   0.000000
     celldm(4)=   0.000000  celldm(5)=   0.000000  celldm(6)=   0.000000

     crystal axes: (cart. coord. in units of alat)
               a(1) = (   1.000000   0.000000   0.000000 )  
               a(2) = (   0.507171   2.110432   0.000000 )  
               a(3) = (   0.999738   1.088704   1.352338 )  

     reciprocal axes: (cart. coord. in units 2 pi/alat)
               b(1) = (  1.000000 -0.240316 -0.545799 )  
               b(2) = (  0.000000  0.473837 -0.381464 )  
               b(3) = (  0.000000  0.000000  0.739460 )  


     PseudoPot. # 1 for Mg read from file:
     ..\..\pseudo\\Mg.pbe-n-kjpaw_psl.0.3.0.UPF
     MD5 check sum: d3e4124f57d03672d8f0e29aa18e2cc4
     Pseudo is Projector augmented-wave + core cor, Zval =  2.0
     Generated using &quot;atomic&quot; code by A. Dal Corso  v.6.3
     Shape of augmentation charge: PSQ
     Using radial grid of 1129 points,  4 beta functions with: 
                l(1) =   0
                l(2) =   0
                l(3) =   1
                l(4) =   1
     Q(r) pseudized with 0 coefficients 


     PseudoPot. # 2 for O  read from file:
     ..\..\pseudo\\O.pbe-n-kjpaw_psl.1.0.0.UPF
     MD5 check sum: e99d9cef9b487d1ca56f5b95ecd0fd7a
     Pseudo is Projector augmented-wave + core cor, Zval =  6.0
     Generated using &quot;atomic&quot; code by A. Dal Corso  v.6.3
     Shape of augmentation charge: PSQ
     Using radial grid of 1095 points,  4 beta functions with: 
                l(1) =   0
                l(2) =   0
                l(3) =   1
                l(4) =   1
     Q(r) pseudized with 0 coefficients 


     PseudoPot. # 3 for Mn read from file:
     ..\..\pseudo\\Mn.pbe-spn-kjpaw_psl.0.3.1.UPF
     MD5 check sum: ba19e6d7ccbc12830efad05ba8577d9c
     Pseudo is Projector augmented-wave + core cor, Zval = 15.0
     Generated using &quot;atomic&quot; code by A. Dal Corso  v.6.2.2
     Shape of augmentation charge: PSQ
     Using radial grid of 1187 points,  6 beta functions with: 
                l(1) =   0
                l(2) =   0
                l(3) =   1
                l(4) =   1
                l(5) =   2
                l(6) =   2
     Q(r) pseudized with 0 coefficients 


     atomic species   valence    mass     pseudopotential
     Mg                2.00    24.30500     Mg( 1.00)
     O                 6.00    15.99900     O ( 1.00)
     Mn               15.00    54.93800     Mn( 1.00)

     No symmetry found



   Cartesian axes

     site n.     atom                  positions (alat units)
         1        Mg     tau(   1) = (   1.1587316   1.6579037   0.5217088  )
         2        Mg     tau(   2) = (   0.1623378   0.3675890   0.1354334  )
         3        Mn     tau(   3) = (   1.6625183   0.8146361   0.8657903  )
         4        O      tau(   4) = (   1.1705159   2.3483956   0.6039374  )
         5        O      tau(   5) = (   1.6605952   1.4769918   0.9907932  )
         6        O      tau(   6) = (   1.1619027   0.9599794   0.4685912  )
         7        O      tau(   7) = (   1.6692567   2.8599163   1.3268957  )

     number of k points=    36  Marzari-Vanderbilt smearing, width (Ry)=  0.0200
                       cart. coord. in units 2pi/alat
        k(    1) = (   0.0000000   0.0000000   0.0000000), wk =   0.0312500
        k(    2) = (   0.0000000   0.0000000   0.1848650), wk =   0.0625000
        k(    3) = (   0.0000000   0.0000000  -0.3697300), wk =   0.0312500
        k(    4) = (   0.0000000   0.1184591  -0.0953659), wk =   0.0625000
        k(    5) = (   0.0000000   0.1184591   0.0894991), wk =   0.0625000
        k(    6) = (   0.0000000   0.1184591  -0.4650959), wk =   0.0625000
        k(    7) = (   0.0000000   0.1184591  -0.2802309), wk =   0.0625000
        k(    8) = (   0.0000000  -0.2369183   0.1907319), wk =   0.0312500
        k(    9) = (   0.0000000  -0.2369183   0.3755969), wk =   0.0625000
        k(   10) = (   0.0000000  -0.2369183  -0.1789982), wk =   0.0312500
        k(   11) = (   0.2500000  -0.0600791  -0.1364497), wk =   0.0625000
        k(   12) = (   0.2500000  -0.0600791   0.0484153), wk =   0.0625000
        k(   13) = (   0.2500000  -0.0600791  -0.5061797), wk =   0.0625000
        k(   14) = (   0.2500000  -0.0600791  -0.3213147), wk =   0.0625000
        k(   15) = (   0.2500000   0.0583801  -0.2318157), wk =   0.0625000
        k(   16) = (   0.2500000   0.0583801  -0.0469507), wk =   0.0625000
        k(   17) = (   0.2500000   0.0583801  -0.6015457), wk =   0.0625000
        k(   18) = (   0.2500000   0.0583801  -0.4166807), wk =   0.0625000
        k(   19) = (   0.2500000  -0.2969973   0.0542821), wk =   0.0625000
        k(   20) = (   0.2500000  -0.2969973   0.2391471), wk =   0.0625000
        k(   21) = (   0.2500000  -0.2969973  -0.3154479), wk =   0.0625000
        k(   22) = (   0.2500000  -0.2969973  -0.1305829), wk =   0.0625000
        k(   23) = (   0.2500000  -0.1785382  -0.0410838), wk =   0.0625000
        k(   24) = (   0.2500000  -0.1785382   0.1437812), wk =   0.0625000
        k(   25) = (   0.2500000  -0.1785382  -0.4108138), wk =   0.0625000
        k(   26) = (   0.2500000  -0.1785382  -0.2259488), wk =   0.0625000
        k(   27) = (  -0.5000000   0.1201581   0.2728995), wk =   0.0312500
        k(   28) = (  -0.5000000   0.1201581   0.4577645), wk =   0.0625000
        k(   29) = (  -0.5000000   0.1201581  -0.0968306), wk =   0.0312500
        k(   30) = (  -0.5000000   0.2386172   0.1775335), wk =   0.0625000
        k(   31) = (  -0.5000000   0.2386172   0.3623985), wk =   0.0625000
        k(   32) = (  -0.5000000   0.2386172  -0.1921965), wk =   0.0625000
        k(   33) = (  -0.5000000   0.2386172  -0.0073315), wk =   0.0625000
        k(   34) = (  -0.5000000  -0.1167602   0.4636313), wk =   0.0312500
        k(   35) = (  -0.5000000  -0.1167602   0.6484963), wk =   0.0625000
        k(   36) = (  -0.5000000  -0.1167602   0.0939013), wk =   0.0312500

     Dense  grid:    88591 G-vectors     FFT dimensions: (  40,  90,  80)

     Smooth grid:    31311 G-vectors     FFT dimensions: (  27,  60,  60)

     Estimated max dynamical RAM per process >     416.27 MB

     Check: negative core charge=   -0.000002

     Initial potential from superposition of free atoms

     starting charge      42.9976, renormalised to      43.0000

     STARTING HUBBARD OCCUPATIONS:

     =================== HUBBARD OCCUPATIONS ===================
     ------------------------ ATOM    3 ------------------------
     Tr[ns(  3)] =   5.00000
     eigenvalues:
       0.500  0.500  0.500  0.500  0.500
     eigenvectors (columns):
       1.000  0.000  0.000  0.000  0.000
       0.000  1.000  0.000  0.000  0.000
       0.000  0.000  1.000  0.000  0.000
       0.000  0.000  0.000  1.000  0.000
       0.000  0.000  0.000  0.000  1.000
     occupation matrix ns (before diag.):
       0.500  0.000  0.000  0.000  0.000
       0.000  0.500  0.000  0.000  0.000
       0.000  0.000  0.500  0.000  0.000
       0.000  0.000  0.000  0.500  0.000
       0.000  0.000  0.000  0.000  0.500

     Number of occupied Hubbard levels =    5.0000

     Atomic wfc used for Hubbard projectors are orthogonalized

     Starting wfcs are   34 randomized atomic wfcs
     Checking if some PAW data can be deallocated... 

     total cpu time spent up to now is        2.1 secs

     Self-consistent Calculation

     iteration #  1     ecut=    60.00 Ry     beta= 0.70
     Davidson diagonalization with overlap
     ethr =  1.00E-02,  avg # of iterations =  2.0

     =================== HUBBARD OCCUPATIONS ===================
     ------------------------ ATOM    3 ------------------------
     Tr[ns(  3)] =   4.11570
     eigenvalues:
       0.212  0.224  0.456  0.556  0.611
     eigenvectors (columns):
      -0.005 -0.238  0.424  0.062 -0.872
       0.970 -0.016 -0.002  0.241  0.016
      -0.005 -0.445 -0.847  0.005 -0.290
      -0.016 -0.863  0.320 -0.016  0.390
       0.242 -0.007  0.017 -0.968 -0.060
     occupation matrix ns (before diag.):
       0.561 -0.000  0.015 -0.101  0.002
      -0.000  0.232 -0.001  0.001 -0.081
       0.015 -0.001  0.423 -0.106  0.002
      -0.101  0.001 -0.106  0.307 -0.003
       0.002 -0.081  0.002 -0.003  0.536

     Number of occupied Hubbard levels =    4.1157

     total cpu time spent up to now is        4.6 secs

     total energy              =    -518.73417907 Ry
     estimated scf accuracy    <       2.74416631 Ry

     iteration #  2     ecut=    60.00 Ry     beta= 0.70
     Davidson diagonalization with overlap
     ethr =  6.38E-03,  avg # of iterations =  5.5

     total cpu time spent up to now is        7.7 secs

     total energy              =    -517.39756547 Ry
     estimated scf accuracy    <      36.21522069 Ry

     iteration #  3     ecut=    60.00 Ry     beta= 0.70
     Davidson diagonalization with overlap
     ethr =  6.38E-03,  avg # of iterations =  3.2

     total cpu time spent up to now is       10.2 secs

     total energy              =    -520.29162470 Ry
     estimated scf accuracy    <       1.09410303 Ry

     iteration #  4     ecut=    60.00 Ry     beta= 0.70
     Davidson diagonalization with overlap
     ethr =  2.54E-03,  avg # of iterations =  2.1

     total cpu time spent up to now is       12.5 secs

     total energy              =    -520.45285938 Ry
     estimated scf accuracy    <       0.21582490 Ry

     iteration #  5     ecut=    60.00 Ry     beta= 0.70
     Davidson diagonalization with overlap
     ethr =  5.02E-04,  avg # of iterations =  4.7

     total cpu time spent up to now is       15.5 secs

     total energy              =    -520.58904139 Ry
     estimated scf accuracy    <       0.08539532 Ry

     iteration #  6     ecut=    60.00 Ry     beta= 0.70
     Davidson diagonalization with overlap
     ethr =  1.99E-04,  avg # of iterations =  1.4

     total cpu time spent up to now is       17.6 secs

     total energy              =    -520.63300225 Ry
     estimated scf accuracy    <       0.07116657 Ry

     iteration #  7     ecut=    60.00 Ry     beta= 0.70
     Davidson diagonalization with overlap
     ethr =  1.66E-04,  avg # of iterations =  4.1

     total cpu time spent up to now is       20.4 secs

     total energy              =    -520.63998911 Ry
     estimated scf accuracy    <       0.25894739 Ry

     iteration #  8     ecut=    60.00 Ry     beta= 0.70
     Davidson diagonalization with overlap
     ethr =  1.66E-04,  avg # of iterations =  1.9

     total cpu time spent up to now is       22.6 secs

     total energy              =    -520.62119482 Ry
     estimated scf accuracy    <       0.16452898 Ry

     iteration #  9     ecut=    60.00 Ry     beta= 0.70
     Davidson diagonalization with overlap
     ethr =  1.66E-04,  avg # of iterations =  2.0

     total cpu time spent up to now is       24.9 secs

     total energy              =    -520.59874910 Ry
     estimated scf accuracy    <       0.09461299 Ry

     iteration # 10     ecut=    60.00 Ry     beta= 0.70
     Davidson diagonalization with overlap
     ethr =  1.66E-04,  avg # of iterations =  2.0

     total cpu time spent up to now is       27.1 secs

     total energy              =    -520.59930748 Ry
     estimated scf accuracy    <       0.03566198 Ry

     iteration # 11     ecut=    60.00 Ry     beta= 0.70
     Davidson diagonalization with overlap
     ethr =  8.29E-05,  avg # of iterations =  2.7

     total cpu time spent up to now is       29.5 secs

     total energy              =    -520.60551658 Ry
     estimated scf accuracy    <       0.00534376 Ry

     iteration # 12     ecut=    60.00 Ry     beta= 0.70
     Davidson diagonalization with overlap
     ethr =  1.24E-05,  avg # of iterations =  6.0

     total cpu time spent up to now is       32.7 secs

     total energy              =    -520.60991109 Ry
     estimated scf accuracy    <       0.00129208 Ry

     iteration # 13     ecut=    60.00 Ry     beta= 0.70
     Davidson diagonalization with overlap
     c_bands:  2 eigenvalues not converged
     ethr =  3.00E-06,  avg # of iterations = 10.6

     total cpu time spent up to now is       35.7 secs

     total energy              =    -520.61055747 Ry
     estimated scf accuracy    <       0.00019699 Ry

     iteration # 14     ecut=    60.00 Ry     beta= 0.70
     Davidson diagonalization with overlap
     c_bands:  1 eigenvalues not converged
     c_bands:  1 eigenvalues not converged
     c_bands:  1 eigenvalues not converged
     c_bands:  1 eigenvalues not converged
     c_bands:  1 eigenvalues not converged
     ethr =  4.58E-07,  avg # of iterations = 14.5

     total cpu time spent up to now is       40.7 secs

     total energy              =    -520.61066337 Ry
     estimated scf accuracy    <       0.00086722 Ry

     iteration # 15     ecut=    60.00 Ry     beta= 0.70
     Davidson diagonalization with overlap
     ethr =  4.58E-07,  avg # of iterations =  5.0

     total cpu time spent up to now is       43.5 secs

     total energy              =    -520.61074549 Ry
     estimated scf accuracy    <       0.00007629 Ry

     iteration # 16     ecut=    60.00 Ry     beta= 0.70
     Davidson diagonalization with overlap
     ethr =  1.77E-07,  avg # of iterations =  5.3

     total cpu time spent up to now is       46.4 secs

     total energy              =    -520.61079784 Ry
     estimated scf accuracy    <       0.00000920 Ry

     iteration # 17     ecut=    60.00 Ry     beta= 0.70
     Davidson diagonalization with overlap
     c_bands:  1 eigenvalues not converged
     ethr =  2.14E-08,  avg # of iterations = 12.4

     total cpu time spent up to now is       50.0 secs

     total energy              =    -520.61081466 Ry
     estimated scf accuracy    <       0.00000843 Ry

     iteration # 18     ecut=    60.00 Ry     beta= 0.70
     Davidson diagonalization with overlap
     ethr =  1.96E-08,  avg # of iterations =  2.6

     total cpu time spent up to now is       52.5 secs

     total energy              =    -520.61082273 Ry
     estimated scf accuracy    <       0.00000672 Ry

     iteration # 19     ecut=    60.00 Ry     beta= 0.70
     Davidson diagonalization with overlap
     ethr =  1.56E-08,  avg # of iterations =  3.1

     total cpu time spent up to now is       54.9 secs

     total energy              =    -520.61079093 Ry
     estimated scf accuracy    <       0.00000913 Ry

     iteration # 20     ecut=    60.00 Ry     beta= 0.70
     Davidson diagonalization with overlap
     ethr =  1.56E-08,  avg # of iterations =  3.6

     total cpu time spent up to now is       57.6 secs

     total energy              =    -520.61081904 Ry
     estimated scf accuracy    <       0.00000409 Ry

     iteration # 21     ecut=    60.00 Ry     beta= 0.70
     Davidson diagonalization with overlap
     ethr =  9.52E-09,  avg # of iterations =  5.4

     total cpu time spent up to now is       60.8 secs

     total energy              =    -520.61084610 Ry
     estimated scf accuracy    <       0.00000906 Ry

     iteration # 22     ecut=    60.00 Ry     beta= 0.70
     Davidson diagonalization with overlap
     ethr =  9.52E-09,  avg # of iterations =  2.4

     total cpu time spent up to now is       63.2 secs

     total energy              =    -520.61088164 Ry
     estimated scf accuracy    <       0.00000468 Ry

     iteration # 23     ecut=    60.00 Ry     beta= 0.70
     Davidson diagonalization with overlap
     ethr =  9.52E-09,  avg # of iterations =  2.0

     total cpu time spent up to now is       65.5 secs

     total energy              =    -520.61088421 Ry
     estimated scf accuracy    <       0.00000336 Ry

     iteration # 24     ecut=    60.00 Ry     beta= 0.70
     Davidson diagonalization with overlap
     ethr =  7.81E-09,  avg # of iterations =  3.8

     total cpu time spent up to now is       68.2 secs

     total energy              =    -520.61087870 Ry
     estimated scf accuracy    <       0.00000116 Ry

     iteration # 25     ecut=    60.00 Ry     beta= 0.70
     Davidson diagonalization with overlap
     ethr =  2.71E-09,  avg # of iterations =  6.4

     total cpu time spent up to now is       71.4 secs

     End of self-consistent calculation

     =================== HUBBARD OCCUPATIONS ===================
     ------------------------ ATOM    3 ------------------------
     Tr[ns(  3)] =   5.21653
     eigenvalues:
       0.194  0.320  0.400  0.718  0.976
     eigenvectors (columns):
      -0.548  0.001 -0.202 -0.005  0.812
       0.000 -0.958 -0.006  0.288  0.001
       0.804  0.004 -0.395  0.003  0.444
      -0.231  0.006 -0.896  0.003 -0.379
       0.005 -0.288 -0.005 -0.958 -0.004
     occupation matrix ns (before diag.):
       0.718  0.000  0.299 -0.203  0.000
       0.000  0.353  0.001  0.001 -0.110
       0.299  0.001  0.380 -0.059 -0.002
      -0.203  0.001 -0.059  0.472  0.000
       0.000 -0.110 -0.002  0.000  0.685

     Number of occupied Hubbard levels =    5.2165

          k = 0.0000 0.0000 0.0000 (  3893 PWs)   bands (ev):

   -73.2459 -42.6403 -41.8759 -41.2947 -12.0241 -10.6048 -10.5486 -10.4044
     0.6086   1.3720   2.0975   2.4228   2.7892   3.8216   3.9571   4.2972
     4.4672   5.0380   5.3843   5.4343   5.7225   6.5536   7.6683   9.4997
    10.0731  11.3103

          k = 0.0000 0.0000 0.1849 (  3895 PWs)   bands (ev):

   -73.2458 -42.6403 -41.8760 -41.2947 -11.8349 -10.8149 -10.6261 -10.3669
     0.8103   1.6086   1.9087   2.8006   2.8060   3.7767   3.9104   4.3059
     4.4032   4.7032   5.2244   5.3490   5.4877   6.5193   7.7675   9.2396
    10.1204  12.4295

          k = 0.0000 0.0000-0.3697 (  3894 PWs)   bands (ev):

   -73.2457 -42.6403 -41.8760 -41.2947 -11.5164 -11.1144 -10.7052 -10.3690
     1.1548   1.5723   2.3374   2.8186   2.8445   3.3265   3.7573   4.2804
     4.4914   4.5032   5.1396   5.2581   5.4108   6.4839   7.8158   9.0509
    10.1682  14.1068

          k = 0.0000 0.1185-0.0954 (  3889 PWs)   bands (ev):

   -73.2458 -42.6403 -41.8759 -41.2947 -11.9207 -10.7056 -10.6135 -10.3802
     0.8430   1.3598   2.0159   2.5959   2.8243   3.8255   3.9556   4.2632
     4.4249   4.8135   5.1695   5.3769   5.7083   6.5822   7.6877   9.5588
    10.1171  12.1013

          k = 0.0000 0.1185 0.0895 (  3904 PWs)   bands (ev):

   -73.2459 -42.6403 -41.8759 -41.2947 -11.8860 -10.8886 -10.5482 -10.2951
     0.7301   1.7143   1.9388   2.5977   2.7700   3.6615   3.8161   4.4028
     4.4180   4.9375   5.2237   5.3248   5.5932   6.5575   7.7594   9.2436
    10.0756  12.0471

          k = 0.0000 0.1185-0.4651 (  3922 PWs)   bands (ev):

   -73.2458 -42.6404 -41.8760 -41.2947 -11.5947 -11.1513 -10.6322 -10.3010
     1.0906   1.5179   2.3174   2.7837   2.8547   3.3868   3.7889   4.0289
     4.5186   4.7622   5.1645   5.2261   5.4404   6.5212   7.8503   9.0293
    10.1234  13.4044

          k = 0.0000 0.1185-0.2802 (  3906 PWs)   bands (ev):

   -73.2457 -42.6403 -41.8760 -41.2947 -11.6821 -10.9392 -10.7031 -10.3569
     1.0652   1.6216   2.0311   2.7625   2.8404   3.6493   3.7794   4.2570
     4.3741   4.6444   5.1439   5.2863   5.4501   6.5505   7.7936   9.3226
    10.1643  13.6932

          k = 0.0000-0.2369 0.1907 (  3908 PWs)   bands (ev):

   -73.2458 -42.6403 -41.8760 -41.2947 -11.7871 -10.8818 -10.6262 -10.3621
     0.8622   1.6557   2.1597   2.6913   2.8618   3.4084   3.8259   4.2320
     4.3436   4.7919   5.1336   5.3195   5.7164   6.6100   7.6966   9.6257
    10.1606  13.4367

          k = 0.0000-0.2369 0.3756 (  3906 PWs)   bands (ev):

   -73.2458 -42.6403 -41.8760 -41.2947 -11.7525 -10.9648 -10.6475 -10.2921
     1.1193   1.6167   1.8307   2.6915   2.8025   3.6124   3.8224   4.3844
     4.4647   4.6583   5.1592   5.2628   5.4859   6.5863   7.7993   9.3246
    10.1196  12.9532

          k = 0.0000-0.2369-0.1790 (  3902 PWs)   bands (ev):

   -73.2458 -42.6404 -41.8759 -41.2947 -11.6561 -11.1994 -10.5475 -10.2504
     0.9063   1.7582   2.2118   2.7015   2.7513   3.5687   3.7733   3.8211
     4.5381   4.9498   5.2013   5.2394   5.4873   6.5563   7.8309   9.0029
    10.0783  13.2587

          k = 0.2500-0.0601-0.1364 (  3913 PWs)   bands (ev):

   -73.2429 -42.6373 -41.8703 -41.3343 -11.4670 -10.6833 -10.4642 -10.3347
     1.2404   1.5314   1.9961   2.2787   2.5762   2.8454   3.5114   3.8762
     4.0518   4.7929   5.0234   5.2150   5.8687   6.4463   7.6226   9.2102
     9.7050  13.5375

          k = 0.2500-0.0601 0.0484 (  3893 PWs)   bands (ev):

   -73.2429 -42.6373 -41.8702 -41.3344 -11.5571 -10.5403 -10.4721 -10.3658
     1.2651   1.6584   1.8772   2.3036   2.6504   2.6864   3.4993   3.7011
     4.1312   4.7884   5.1507   5.2040   5.7976   6.5608   7.5533   9.2784
     9.6759  13.2001

          k = 0.2500-0.0601-0.5062 (  3920 PWs)   bands (ev):

   -73.2429 -42.6373 -41.8703 -41.3344 -11.3601 -10.7015 -10.5425 -10.3680
     1.1887   1.5507   2.0457   2.3174   2.4978   2.8434   3.7118   3.9476
     4.1699   4.6890   4.8315   5.1811   5.9294   6.4277   7.6112   9.1802
     9.5959  14.3277

          k = 0.2500-0.0601-0.3213 (  3917 PWs)   bands (ev):

   -73.2429 -42.6373 -41.8703 -41.3343 -11.1846 -10.8990 -10.5518 -10.3515
     1.1955   1.5704   1.9033   2.2130   2.5343   3.2822   3.5992   3.9178
     4.1701   4.6531   4.7979   5.1995   5.9329   6.3465   7.6665   9.2430
     9.5267  14.7205

          k = 0.2500 0.0584-0.2318 (  3918 PWs)   bands (ev):

   -73.2429 -42.6373 -41.8703 -41.3344 -11.3633 -10.6987 -10.5399 -10.3697
     1.1866   1.5511   2.0446   2.3136   2.4997   2.8425   3.7103   3.9432
     4.1749   4.6956   4.8324   5.1823   5.9298   6.4265   7.6136   9.1709
     9.6009  14.3184

          k = 0.2500 0.0584-0.0470 (  3898 PWs)   bands (ev):

   -73.2429 -42.6373 -41.8702 -41.3344 -11.5589 -10.5390 -10.4713 -10.3654
     1.2649   1.6576   1.8785   2.3010   2.6497   2.6841   3.5032   3.6931
     4.1385   4.7835   5.1607   5.2043   5.7925   6.5625   7.5535   9.2755
     9.6784  13.1951

          k = 0.2500 0.0584-0.6015 (  3911 PWs)   bands (ev):

   -73.2429 -42.6373 -41.8703 -41.3343 -11.4660 -10.6827 -10.4655 -10.3354
     1.2391   1.5364   1.9947   2.2767   2.5807   2.8415   3.5135   3.8706
     4.0603   4.7856   5.0224   5.2158   5.8694   6.4495   7.6194   9.2139
     9.7003  13.5474

          k = 0.2500 0.0584-0.4167 (  3915 PWs)   bands (ev):

   -73.2429 -42.6373 -41.8703 -41.3343 -11.1831 -10.8992 -10.5517 -10.3533
     1.1959   1.5695   1.9026   2.2103   2.5349   3.2899   3.6044   3.9154
     4.1638   4.6514   4.8004   5.2005   5.9349   6.3458   7.6642   9.2410
     9.5251  14.7297

          k = 0.2500-0.2970 0.0543 (  3925 PWs)   bands (ev):

   -73.2429 -42.6373 -41.8703 -41.3344 -11.2964 -10.7897 -10.5605 -10.3348
     1.3550   1.6761   1.9131   2.2982   2.4908   2.9350   3.4274   3.8674
     4.1720   4.6580   4.8728   5.2652   5.8975   6.4444   7.6380   9.1956
     9.6594  14.2970

          k = 0.2500-0.2970 0.2391 (  3915 PWs)   bands (ev):

   -73.2429 -42.6373 -41.8703 -41.3344 -11.4234 -10.6711 -10.5179 -10.3532
     1.2680   1.7914   2.0230   2.3249   2.5041   2.7652   3.3124   3.7247
     4.2782   4.6781   4.9540   5.2433   5.8776   6.5572   7.5560   9.2675
     9.5998  14.0851

          k = 0.2500-0.2970-0.3154 (  3914 PWs)   bands (ev):

   -73.2429 -42.6373 -41.8703 -41.3343 -11.4222 -10.7434 -10.4835 -10.3098
     1.4411   1.6210   1.8105   2.4034   2.6194   2.8774   3.2284   3.7312
     3.9752   4.7961   5.0983   5.3062   5.8293   6.4604   7.6410   9.2515
     9.7628  13.4527

          k = 0.2500-0.2970-0.1306 (  3920 PWs)   bands (ev):

   -73.2429 -42.6373 -41.8703 -41.3343 -11.2524 -10.9409 -10.4785 -10.3018
     1.3725   1.6200   1.8527   2.3295   2.5852   2.9876   3.2546   3.9201
     4.0382   4.6728   5.0305   5.2786   5.8943   6.3429   7.7013   9.3299
     9.6302  14.2012

          k = 0.2500-0.1785-0.0411 (  3913 PWs)   bands (ev):

   -73.2429 -42.6373 -41.8703 -41.3343 -11.4200 -10.7444 -10.4845 -10.3105
     1.4423   1.6164   1.8074   2.4162   2.6185   2.8728   3.2279   3.7386
     3.9746   4.8001   5.0828   5.3119   5.8350   6.4547   7.6420   9.2497
     9.7624  13.4539

          k = 0.2500-0.1785 0.1438 (  3921 PWs)   bands (ev):

   -73.2429 -42.6373 -41.8703 -41.3344 -11.4208 -10.6742 -10.5179 -10.3533
     1.2663   1.7906   2.0264   2.3318   2.5020   2.7684   3.3060   3.7277
     4.2740   4.6750   4.9573   5.2421   5.8792   6.5554   7.5557   9.2690
     9.5990  14.0961

          k = 0.2500-0.1785-0.4108 (  3925 PWs)   bands (ev):

   -73.2429 -42.6373 -41.8703 -41.3344 -11.2973 -10.7899 -10.5618 -10.3322
     1.3568   1.6801   1.9113   2.3029   2.4849   2.9371   3.4151   3.8717
     4.1715   4.6612   4.8716   5.2633   5.8925   6.4487   7.6372   9.2030
     9.6593  14.2836

          k = 0.2500-0.1785-0.2259 (  3914 PWs)   bands (ev):

   -73.2429 -42.6373 -41.8703 -41.3343 -11.2534 -10.9416 -10.4774 -10.3010
     1.3739   1.6135   1.8607   2.3346   2.5832   2.9805   3.2497   3.9201
     4.0415   4.6696   5.0386   5.2755   5.8916   6.3433   7.7031   9.3317
     9.6324  14.1975

          k =-0.5000 0.1202 0.2729 (  3922 PWs)   bands (ev):

   -73.2404 -42.6343 -41.8646 -41.3736 -10.6509 -10.5734 -10.5512 -10.4585
     0.5465   1.0122   1.7150   2.1930   2.4653   3.3419   3.7544   4.1002
     4.2682   4.4210   4.4888   4.9490   5.6844   6.3909   7.4800   9.4182
     9.7513  14.9040

          k =-0.5000 0.1202 0.4578 (  3918 PWs)   bands (ev):

   -73.2404 -42.6343 -41.8646 -41.3736 -10.7013 -10.6383 -10.5325 -10.3673
     0.7581   1.0495   1.8300   2.2245   2.5285   3.2507   3.5314   3.9376
     4.1051   4.2394   4.6727   4.8536   5.6788   6.5426   7.4579   9.2266
     9.7404  15.4206

          k =-0.5000 0.1202-0.0968 (  3936 PWs)   bands (ev):

   -73.2404 -42.6343 -41.8646 -41.3736 -10.7377 -10.6819 -10.5103 -10.3147
     0.9285   1.1981   2.0188   2.2770   2.5588   2.9639   3.1990   3.8592
     4.0312   4.2447   4.5990   4.8739   5.6665   6.6583   7.4393   9.0328
     9.7588  15.5694

          k =-0.5000 0.2386 0.1775 (  3934 PWs)   bands (ev):

   -73.2404 -42.6343 -41.8646 -41.3736 -10.6498 -10.5751 -10.5503 -10.4588
     0.6081   0.9269   1.7326   2.1325   2.4839   3.4490   3.8275   3.9998
     4.2480   4.4232   4.4873   4.9367   5.6833   6.3946   7.4742   9.4246
     9.7331  15.2629

          k =-0.5000 0.2386 0.3624 (  3923 PWs)   bands (ev):

   -73.2404 -42.6343 -41.8646 -41.3736 -10.6915 -10.6603 -10.5213 -10.3661
     0.7373   1.0967   1.8272   2.0967   2.7022   3.1805   3.5240   3.9111
     4.0957   4.2499   4.7093   4.8536   5.6761   6.5462   7.4572   9.2129
     9.7541  15.2113

          k =-0.5000 0.2386-0.1922 (  3915 PWs)   bands (ev):

   -73.2404 -42.6343 -41.8646 -41.3736 -10.7525 -10.6619 -10.5197 -10.3102
     0.9589   1.1439   2.0605   2.2621   2.6087   2.8938   3.2624   3.8373
     3.9513   4.2586   4.5945   4.9122   5.6716   6.6659   7.4378   9.0368
     9.7519  15.5633

          k =-0.5000 0.2386-0.0073 (  3927 PWs)   bands (ev):

   -73.2404 -42.6343 -41.8646 -41.3736 -10.6888 -10.6570 -10.5248 -10.3687
     0.7348   1.1013   1.8200   2.0942   2.7009   3.1822   3.5239   3.9251
     4.0992   4.2512   4.7046   4.8519   5.6770   6.5415   7.4554   9.2193
     9.7511  15.2001

          k =-0.5000-0.1168 0.4636 (  3928 PWs)   bands (ev):

   -73.2404 -42.6343 -41.8646 -41.3736 -10.6485 -10.5725 -10.5555 -10.4573
     0.5489   1.0158   1.7132   2.1739   2.4514   3.3399   3.7899   4.1047
     4.2763   4.4263   4.4802   4.9460   5.6851   6.3863   7.4753   9.4174
     9.7486  14.8977

          k =-0.5000-0.1168 0.6485 (  3915 PWs)   bands (ev):

   -73.2404 -42.6343 -41.8646 -41.3736 -10.7024 -10.6419 -10.5307 -10.3640
     0.7639   1.0487   1.8283   2.2192   2.5112   3.2568   3.5330   3.9475
     4.1028   4.2460   4.6727   4.8559   5.6783   6.5427   7.4559   9.2220
     9.7407  15.4377

          k =-0.5000-0.1168 0.0939 (  3928 PWs)   bands (ev):

   -73.2404 -42.6343 -41.8646 -41.3736 -10.7420 -10.6853 -10.5065 -10.3104
     0.9387   1.1945   2.0221   2.2697   2.5381   2.9733   3.1985   3.8527
     4.0374   4.2488   4.6009   4.8787   5.6651   6.6633   7.4383   9.0200
     9.7619  15.5764

     the Fermi energy is     6.5264 ev

!    total energy              =    -520.61089885 Ry
     total all-electron energy =     -3720.864157 Ry
     estimated scf accuracy    <       0.00000070 Ry
     smearing contrib. (-TS)   =      -0.00434783 Ry
     internal energy E=F+TS    =    -520.60655102 Ry

     The total energy is F=E-TS. E is the sum of the following terms:
     one-electron contribution =    -242.69593911 Ry
     hartree contribution      =     145.97871405 Ry
     xc contribution           =     -61.15648642 Ry
     ewald contribution        =    -184.23937401 Ry
     Hubbard energy            =       0.24065821 Ry
     one-center paw contrib.   =    -178.73412375 Ry

     convergence has been achieved in  25 iterations
     force_hub    :     14.69s CPU      2.13s WALL (       1 calls)
     dndtau       :     11.95s CPU      1.86s WALL (     756 calls)
     dprojdtau    :      1.27s CPU      0.31s WALL (     756 calls)
     calc_doverla :      5.98s CPU      1.00s WALL (     756 calls)
     matel_dSdtau :      9.16s CPU      1.31s WALL (    1512 calls)

     Forces acting on atoms (cartesian axes, Ry/au):

     atom    1 type  1   force =     0.00190418   -0.01535900   -0.00870077
     atom    2 type  1   force =    -0.00044579    0.00807310   -0.00926484
     atom    3 type  3   force =    -0.00096674   -0.04410858   -0.00994725
     atom    4 type  2   force =    -0.00138294    0.03655436    0.02233973
     atom    5 type  2   force =     0.00081883   -0.00984404   -0.00447540
     atom    6 type  2   force =     0.00053003    0.01164432    0.01094169
     atom    7 type  2   force =    -0.00045757    0.01303985   -0.00089315

     Total force =     0.069952     Total SCF correction =     0.000447


     Computing stress (Cartesian axis) and pressure

     stres_hub    :     39.84s CPU      5.26s WALL (       1 calls)
     dprojdepsilo :     32.67s CPU      4.26s WALL (     324 calls)
     dprojdeps1   :      3.69s CPU      0.49s WALL (     324 calls)
     dprojdeps2   :     19.31s CPU      2.36s WALL (     324 calls)
     dprojdeps3   :      9.59s CPU      1.41s WALL (     324 calls)
          total   stress  (Ry/bohr**3)                   (kbar)     P=      -41.20
  -0.00006470   0.00000234  -0.00000009           -9.52        0.34       -0.01
   0.00000234  -0.00044921  -0.00016501            0.34      -66.08      -24.27
  -0.00000009  -0.00016501  -0.00032624           -0.01      -24.27      -47.99


     BFGS Geometry Optimization
     Energy error            =      9.5E-03 Ry
     Gradient error          =      4.4E-02 Ry/Bohr
     Cell gradient error     =      6.6E+01 kbar

     number of scf cycles    =   1
     number of bfgs steps    =   0

     enthalpy           new  =    -520.6108988525 Ry

     new trust radius        =       0.0534300518 bohr
     new conv_thr            =       0.0000010000 Ry

     new unit-cell volume =    488.18775 a.u.^3 (    72.34196 Ang^3 )
     density =      3.84581 g/cm^3

CELL_PARAMETERS (angstrom)
   2.953467388   0.000172787  -0.000006971
   1.498278039   6.173166674  -0.025758125
   2.952872329   3.168163020   3.954635171

ATOMIC_POSITIONS (angstrom)
Mg               3.4235643010        4.8352350259        1.5059849142
Mg               0.4792865901        1.0778287287        0.3880109242
Mn               4.9098161191        2.3494996513        2.5252588075
O                3.4567525654        6.8810383355        1.7550060786
O                4.9051943005        4.3033008281        2.8867469054
O                3.4320847235        2.8085201081        1.3688992131
O                4.9303388222        8.3562625180        3.8578672052



     Writing config-only to output data dir .\out\\qgan.save\ :
     XML data file
     NEW-OLD atomic charge density approx. for the potential
     New effective cutoffs (rho, wfc):  493.19   61.68

     Check: negative core charge=   -0.000002

     Atomic wfc used for Hubbard projectors are orthogonalized


     total cpu time spent up to now is       81.7 secs

     Self-consistent Calculation

     iteration #  1     ecut=    60.00 Ry     beta= 0.70
     Davidson diagonalization with overlap
     ethr =  1.00E-06,  avg # of iterations = 13.4

     =================== HUBBARD OCCUPATIONS ===================
     ------------------------ ATOM    3 ------------------------
     Tr[ns(  3)] =   5.28781
     eigenvalues:
       0.214  0.323  0.407  0.726  0.974
     eigenvectors (columns):
       0.551  0.000 -0.200 -0.003  0.810
      -0.000 -0.958 -0.005  0.288  0.001
      -0.799  0.003 -0.407  0.003  0.442
       0.242  0.005 -0.891  0.003 -0.384
      -0.004 -0.288 -0.004 -0.958 -0.002
     occupation matrix ns (before diag.):
       0.721  0.000  0.288 -0.202  0.000
       0.000  0.357  0.001  0.000 -0.111
       0.288  0.001  0.395 -0.059 -0.002
      -0.202  0.000 -0.059  0.479 -0.000
       0.000 -0.111 -0.002 -0.000  0.693

     Number of occupied Hubbard levels =    5.2878

     total cpu time spent up to now is       88.7 secs

     total energy              =    -520.61059554 Ry
     estimated scf accuracy    <       0.00891237 Ry

     iteration #  2     ecut=    60.00 Ry     beta= 0.70
     Davidson diagonalization with overlap
     ethr =  2.07E-05,  avg # of iterations =  4.9

     total cpu time spent up to now is       91.6 secs

     total energy              =    -520.60390006 Ry
     estimated scf accuracy    <       0.14905751 Ry

     iteration #  3     ecut=    60.00 Ry     beta= 0.70
     Davidson diagonalization with overlap
     ethr =  2.07E-05,  avg # of iterations =  3.8

     total cpu time spent up to now is       94.1 secs

     total energy              =    -520.61586628 Ry
     estimated scf accuracy    <       0.00368786 Ry

     iteration #  4     ecut=    60.00 Ry     beta= 0.70
     Davidson diagonalization with overlap
     ethr =  8.58E-06,  avg # of iterations =  2.1

     total cpu time spent up to now is       96.5 secs

     total energy              =    -520.61671678 Ry
     estimated scf accuracy    <       0.00121098 Ry

     iteration #  5     ecut=    60.00 Ry     beta= 0.70
     Davidson diagonalization with overlap
     ethr =  2.82E-06,  avg # of iterations =  2.4

     total cpu time spent up to now is       98.8 secs

     total energy              =    -520.61689452 Ry
     estimated scf accuracy    <       0.00009240 Ry

     iteration #  6     ecut=    60.00 Ry     beta= 0.70
     Davidson diagonalization with overlap
     ethr =  2.15E-07,  avg # of iterations = 11.3

     total cpu time spent up to now is      102.4 secs

     total energy              =    -520.61698392 Ry
     estimated scf accuracy    <       0.00010542 Ry

     iteration #  7     ecut=    60.00 Ry     beta= 0.70
     Davidson diagonalization with overlap
     ethr =  2.15E-07,  avg # of iterations =  1.3

     total cpu time spent up to now is      104.6 secs

     total energy              =    -520.61699126 Ry
     estimated scf accuracy    <       0.00001722 Ry

     iteration #  8     ecut=    60.00 Ry     beta= 0.70
     Davidson diagonalization with overlap
     ethr =  4.00E-08,  avg # of iterations =  9.4

     total cpu time spent up to now is      108.2 secs

     total energy              =    -520.61700687 Ry
     estimated scf accuracy    <       0.00002305 Ry

     iteration #  9     ecut=    60.00 Ry     beta= 0.70
     Davidson diagonalization with overlap
     ethr =  4.00E-08,  avg # of iterations =  1.3

     total cpu time spent up to now is      110.4 secs

     total energy              =    -520.61700588 Ry
     estimated scf accuracy    <       0.00001087 Ry

     iteration # 10     ecut=    60.00 Ry     beta= 0.70
     Davidson diagonalization with overlap
     ethr =  2.53E-08,  avg # of iterations =  2.2

     total cpu time spent up to now is      112.7 secs

     total energy              =    -520.61700725 Ry
     estimated scf accuracy    <       0.00000155 Ry

     iteration # 11     ecut=    60.00 Ry     beta= 0.70
     Davidson diagonalization with overlap
     ethr =  3.61E-09,  avg # of iterations = 13.3

     total cpu time spent up to now is      117.4 secs

     End of self-consistent calculation

     =================== HUBBARD OCCUPATIONS ===================
     ------------------------ ATOM    3 ------------------------
     Tr[ns(  3)] =   5.22561
     eigenvalues:
       0.207  0.319  0.400  0.713  0.973
     eigenvectors (columns):
       0.551 -0.000  0.205 -0.001  0.809
      -0.000  0.957  0.002  0.288  0.000
      -0.799 -0.002  0.409  0.002  0.441
       0.241 -0.003  0.889  0.003 -0.389
      -0.001  0.288  0.004 -0.957 -0.001
     occupation matrix ns (before diag.):
       0.717  0.000  0.289 -0.206 -0.000
       0.000  0.352  0.000  0.000 -0.109
       0.289  0.000  0.388 -0.061 -0.001
      -0.206  0.000 -0.061  0.476 -0.001
      -0.000 -0.109 -0.001 -0.001  0.680

     Number of occupied Hubbard levels =    5.2256

          k = 0.0000 0.0000 0.0000 (  3893 PWs)   bands (ev):

   -72.9415 -42.3565 -41.5796 -40.9870 -11.9090 -10.5474 -10.2963 -10.1245
     0.7630   1.4986   2.1893   2.6228   2.9990   3.9479   4.1752   4.3874
     4.6361   5.3664   5.6052   5.6869   6.0474   6.9653   7.9743   9.9912
    10.4033  11.7074

          k = 0.0000 0.0008 0.1864 (  3895 PWs)   bands (ev):

   -72.9415 -42.3566 -41.5796 -40.9870 -11.7145 -10.7126 -10.3726 -10.1441
     0.9586   1.7569   2.0050   3.0031   3.0093   3.9006   4.0616   4.5046
     4.5808   4.9484   5.5058   5.5996   5.7811   6.9270   8.0772   9.7129
    10.4515  12.8177

          k =-0.0000-0.0016-0.3728 (  3894 PWs)   bands (ev):

   -72.9414 -42.3566 -41.5796 -40.9870 -11.3867 -10.9985 -10.4471 -10.1795
     1.2289   1.7853   2.5129   3.0122   3.0150   3.4739   3.8850   4.5172
     4.6027   4.7754   5.4409   5.5069   5.6625   6.8878   8.1397   9.5017
    10.4999  14.4384

          k =-0.0000 0.1194-0.0957 (  3889 PWs)   bands (ev):

   -72.9415 -42.3565 -41.5796 -40.9870 -11.8067 -10.5906 -10.4122 -10.1089
     0.9971   1.4910   2.1581   2.7522   3.0344   3.9659   4.1325   4.3377
     4.6831   5.0250   5.4502   5.6336   6.0437   6.9909   7.9837  10.0519
    10.4487  12.4958

          k =-0.0000 0.1202 0.0907 (  3904 PWs)   bands (ev):

   -72.9415 -42.3566 -41.5796 -40.9870 -11.7559 -10.7967 -10.2776 -10.0877
     0.8979   1.8166   2.0421   2.8254   2.9732   3.8238   3.9408   4.5080
     4.6394   5.1976   5.5325   5.5847   5.8652   6.9642   8.0726   9.7074
    10.4052  12.4584

          k =-0.0000 0.1179-0.4684 (  3922 PWs)   bands (ev):

   -72.9414 -42.3567 -41.5796 -40.9870 -11.4333 -11.0771 -10.3588 -10.1159
     1.2561   1.6210   2.4481   2.9801   3.0929   3.5078   3.9152   4.3005
     4.6187   5.0403   5.4304   5.4870   5.7061   6.9241   8.1703   9.4807
    10.4538  13.7988

          k =-0.0000 0.1186-0.2820 (  3906 PWs)   bands (ev):

   -72.9414 -42.3566 -41.5796 -40.9870 -11.5658 -10.8025 -10.4852 -10.1319
     1.2024   1.7579   2.1852   2.9564   3.0433   3.8139   3.9139   4.4621
     4.4890   4.8922   5.4082   5.5418   5.7691   6.9553   8.1007   9.7939
    10.4965  14.0582

          k = 0.0000-0.2388 0.1913 (  3908 PWs)   bands (ev):

   -72.9414 -42.3565 -41.5796 -40.9870 -11.6772 -10.7049 -10.4797 -10.0968
     1.0033   1.7921   2.3536   2.8162   3.0723   3.6028   3.9856   4.2851
     4.5619   5.0130   5.4280   5.5800   6.0483   7.0163   7.9861  10.1184
    10.4935  13.7951

          k = 0.0000-0.2380 0.3777 (  3906 PWs)   bands (ev):

   -72.9415 -42.3566 -41.5796 -40.9870 -11.6198 -10.8715 -10.3885 -10.0803
     1.2919   1.7484   1.9496   2.8762   3.0053   3.7741   3.9584   4.4655
     4.7347   4.8897   5.4166   5.5276   5.8000   6.9907   8.1090   9.7905
    10.4504  13.3743

          k = 0.0000-0.2404-0.1815 (  3902 PWs)   bands (ev):

   -72.9415 -42.3567 -41.5796 -40.9870 -11.4718 -11.1479 -10.2719 -10.0666
     1.1047   1.7948   2.3271   2.9476   2.9656   3.7022   3.9467   4.0518
     4.6280   5.1990   5.4739   5.5231   5.7706   6.9585   8.1468   9.4484
    10.4075  13.6782

          k = 0.2504-0.0614-0.1378 (  3913 PWs)   bands (ev):

   -72.9385 -42.3535 -41.5737 -41.0279 -11.3426 -10.5769 -10.2292 -10.1000
     1.3755   1.6527   2.1173   2.4159   2.7657   3.0365   3.7614   4.0227
     4.2470   5.0035   5.2913   5.4683   6.1386   6.8550   7.9596   9.6551
    10.0832  13.9067

          k = 0.2504-0.0606 0.0486 (  3893 PWs)   bands (ev):

   -72.9385 -42.3534 -41.5737 -41.0279 -11.4412 -10.4418 -10.2738 -10.0759
     1.3987   1.7890   2.0229   2.4349   2.8268   2.8630   3.6887   3.9324
     4.2935   5.0081   5.3738   5.5099   6.0678   6.9625   7.8853   9.7225
    10.0547  13.5704

          k = 0.2504-0.0629-0.5106 (  3920 PWs)   bands (ev):

   -72.9385 -42.3534 -41.5737 -41.0279 -11.2475 -10.5518 -10.3547 -10.1192
     1.3134   1.6614   2.1753   2.5121   2.6948   3.0080   3.9481   4.0773
     4.3680   4.9460   5.0472   5.4361   6.1933   6.8463   7.9510   9.6102
     9.9893  14.6823

          k = 0.2504-0.0621-0.3242 (  3917 PWs)   bands (ev):

   -72.9385 -42.3535 -41.5737 -41.0279 -11.0604 -10.7719 -10.3126 -10.1449
     1.3121   1.6565   2.0574   2.4059   2.7595   3.3834   3.8371   4.1361
     4.3517   4.8865   5.0140   5.4396   6.2064   6.7627   8.0147   9.7286
     9.8619  15.0520

          k = 0.2504 0.0581-0.2335 (  3918 PWs)   bands (ev):

   -72.9385 -42.3534 -41.5737 -41.0279 -11.2505 -10.5499 -10.3522 -10.1200
     1.3117   1.6619   2.1749   2.5080   2.6958   3.0064   3.9455   4.0745
     4.3741   4.9544   5.0435   5.4378   6.1943   6.8460   7.9524   9.6053
     9.9908  14.6733

          k = 0.2504 0.0588-0.0471 (  3898 PWs)   bands (ev):

   -72.9385 -42.3534 -41.5737 -41.0279 -11.4431 -10.4416 -10.2718 -10.0758
     1.3988   1.7876   2.0243   2.4322   2.8149   2.8727   3.6893   3.9263
     4.3016   5.0006   5.3871   5.5088   6.0636   6.9635   7.8853   9.7207
    10.0563  13.5655

          k = 0.2504 0.0565-0.6063 (  3911 PWs)   bands (ev):

   -72.9385 -42.3535 -41.5737 -41.0279 -11.3419 -10.5757 -10.2310 -10.1004
     1.3734   1.6570   2.1163   2.4141   2.7728   3.0311   3.7624   4.0206
     4.2528   4.9980   5.2885   5.4692   6.1401   6.8573   7.9572   9.6553
    10.0814  13.9166

          k = 0.2504 0.0573-0.4199 (  3915 PWs)   bands (ev):

   -72.9385 -42.3535 -41.5737 -41.0279 -11.0598 -10.7704 -10.3138 -10.1461
     1.3118   1.6559   2.0562   2.4042   2.7607   3.3909   3.8405   4.1337
     4.3470   4.8836   5.0169   5.4407   6.2078   6.7632   8.0124   9.7268
     9.8599  15.0592

          k = 0.2504-0.3002 0.0535 (  3925 PWs)   bands (ev):

   -72.9385 -42.3535 -41.5737 -41.0279 -11.1775 -10.6563 -10.3493 -10.1008
     1.4796   1.7976   2.0688   2.4496   2.6903   3.1073   3.6432   4.0209
     4.3568   4.9231   5.0971   5.5064   6.1730   6.8583   7.9745   9.6129
    10.0659  14.6564

          k = 0.2504-0.2994 0.2399 (  3915 PWs)   bands (ev):

   -72.9385 -42.3534 -41.5737 -41.0279 -11.3127 -10.4919 -10.3849 -10.0766
     1.3959   1.9130   2.2091   2.4971   2.6804   2.8909   3.5037   3.9131
     4.4764   4.9454   5.1280   5.5364   6.1429   6.9726   7.8826   9.6755
    10.0166  14.4497

          k = 0.2504-0.3017-0.3193 (  3914 PWs)   bands (ev):

   -72.9385 -42.3535 -41.5737 -41.0279 -11.2905 -10.6448 -10.2399 -10.0844
     1.6014   1.7544   1.9050   2.5444   2.7868   3.0613   3.4965   3.8895
     4.1462   5.0459   5.3461   5.5465   6.1106   6.8638   7.9766   9.6778
    10.1585  13.8271

          k = 0.2504-0.3009-0.1329 (  3920 PWs)   bands (ev):

   -72.9385 -42.3535 -41.5737 -41.0279 -11.0782 -10.8740 -10.2193 -10.1048
     1.5390   1.7214   1.9340   2.5127   2.7841   3.1247   3.4909   4.1344
     4.2390   4.8616   5.3026   5.5102   6.1688   6.7576   8.0409   9.8160
     9.9637  14.5662

          k = 0.2504-0.1808-0.0422 (  3913 PWs)   bands (ev):

   -72.9385 -42.3535 -41.5737 -41.0279 -11.2881 -10.6458 -10.2417 -10.0846
     1.6005   1.7534   1.9025   2.5555   2.7868   3.0546   3.4970   3.8954
     4.1465   5.0502   5.3304   5.5525   6.1141   6.8609   7.9768   9.6783
    10.1559  13.8279

          k = 0.2504-0.1800 0.1442 (  3921 PWs)   bands (ev):

   -72.9385 -42.3534 -41.5737 -41.0279 -11.3102 -10.4939 -10.3860 -10.0767
     1.3940   1.9127   2.2121   2.5041   2.6827   2.8882   3.4998   3.9154
     4.4726   4.9411   5.1317   5.5357   6.1437   6.9713   7.8825   9.6756
    10.0168  14.4603

          k = 0.2504-0.1823-0.4149 (  3925 PWs)   bands (ev):

   -72.9385 -42.3535 -41.5737 -41.0279 -11.1781 -10.6581 -10.3482 -10.0994
     1.4811   1.8017   2.0670   2.4542   2.6814   3.1116   3.6322   4.0246
     4.3564   4.9272   5.0968   5.5039   6.1690   6.8597   7.9747   9.6172
    10.0685  14.6443

          k = 0.2504-0.1815-0.2286 (  3914 PWs)   bands (ev):

   -72.9385 -42.3535 -41.5737 -41.0279 -11.0784 -10.8756 -10.2176 -10.1044
     1.5411   1.7162   1.9399   2.5169   2.7800   3.1215   3.4855   4.1359
     4.2406   4.8585   5.3112   5.5065   6.1666   6.7568   8.0427   9.8173
     9.9666  14.5632

          k =-0.5008 0.1227 0.2757 (  3922 PWs)   bands (ev):

   -72.9360 -42.3503 -41.5678 -41.0684 -10.6175 -10.4276 -10.3189 -10.1698
     0.6730   1.1959   1.8419   2.2851   2.5925   3.5350   3.8848   4.2831
     4.4881   4.7333   4.7540   5.2271   5.9584   6.7423   7.8395   9.9173
    10.0933  15.2688

          k =-0.5008 0.1235 0.4620 (  3918 PWs)   bands (ev):

   -72.9359 -42.3503 -41.5678 -41.0684 -10.6709 -10.4471 -10.3008 -10.1208
     0.8832   1.2402   1.9495   2.3590   2.6196   3.4431   3.6734   4.1810
     4.3597   4.5019   4.8854   5.1020   5.9543   6.9067   7.8182   9.7212
    10.0702  15.7807

          k =-0.5008 0.1211-0.0971 (  3936 PWs)   bands (ev):

   -72.9359 -42.3503 -41.5678 -41.0684 -10.7136 -10.4695 -10.2817 -10.0806
     1.0739   1.3596   2.1643   2.4139   2.6706   3.1000   3.3851   4.1171
     4.2785   4.5189   4.8172   5.0503   5.9449   7.0321   7.8010   9.5118
    10.0893  15.9282

          k =-0.5008 0.2421 0.1800 (  3934 PWs)   bands (ev):

   -72.9360 -42.3503 -41.5678 -41.0684 -10.6175 -10.4271 -10.3195 -10.1697
     0.7306   1.1113   1.8468   2.2713   2.5758   3.6742   3.9032   4.2106
     4.4646   4.7160   4.7706   5.2191   5.9573   6.7461   7.8324   9.9322
    10.0672  15.6281

          k =-0.5008 0.2429 0.3664 (  3923 PWs)   bands (ev):

   -72.9359 -42.3503 -41.5678 -41.0684 -10.6721 -10.4524 -10.2950 -10.1199
     0.8734   1.2728   1.9510   2.2186   2.8064   3.3558   3.6781   4.1564
     4.3609   4.5098   4.9128   5.1029   5.9522   6.9116   7.8175   9.7049
    10.0865  15.5738

          k =-0.5008 0.2406-0.1928 (  3915 PWs)   bands (ev):

   -72.9359 -42.3503 -41.5678 -41.0684 -10.7172 -10.4643 -10.2865 -10.0771
     1.0959   1.3209   2.1497   2.4622   2.7145   3.0258   3.4400   4.0864
     4.2216   4.5186   4.8052   5.1013   5.9490   7.0393   7.8002   9.5179
    10.0802  15.9156

          k =-0.5008 0.2413-0.0064 (  3927 PWs)   bands (ev):

   -72.9359 -42.3503 -41.5678 -41.0684 -10.6702 -10.4492 -10.2990 -10.1211
     0.8712   1.2758   1.9432   2.2187   2.8046   3.3590   3.6778   4.1687
     4.3656   4.5088   4.9105   5.1000   5.9529   6.9081   7.8152   9.7100
    10.0846  15.5602

          k =-0.5008-0.1161 0.4670 (  3928 PWs)   bands (ev):

   -72.9360 -42.3503 -41.5678 -41.0684 -10.6178 -10.4244 -10.3229 -10.1684
     0.6762   1.1974   1.8385   2.2704   2.5783   3.5357   3.9105   4.2916
     4.4945   4.7408   4.7456   5.2240   5.9590   6.7399   7.8341   9.9149
    10.0925  15.2591

          k =-0.5008-0.1153 0.6533 (  3915 PWs)   bands (ev):

   -72.9359 -42.3503 -41.5678 -41.0684 -10.6729 -10.4484 -10.2995 -10.1185
     0.8896   1.2384   1.9466   2.3535   2.6066   3.4474   3.6748   4.1920
     4.3538   4.5099   4.8856   5.1036   5.9540   6.9076   7.8160   9.7166
    10.0707  15.7979

          k =-0.5008-0.1177 0.0942 (  3928 PWs)   bands (ev):

   -72.9359 -42.3503 -41.5678 -41.0684 -10.7169 -10.4729 -10.2775 -10.0776
     1.0855   1.3555   2.1635   2.4067   2.6571   3.1026   3.3893   4.1114
     4.2825   4.5193   4.8232   5.0530   5.9438   7.0365   7.8004   9.5004
    10.0915  15.9370

     the Fermi energy is     6.9282 ev

!    total energy              =    -520.61701014 Ry
     total all-electron energy =     -3720.870269 Ry
     estimated scf accuracy    <       0.00000012 Ry
     smearing contrib. (-TS)   =      -0.00507911 Ry
     internal energy E=F+TS    =    -520.61193103 Ry

     The total energy is F=E-TS. E is the sum of the following terms:
     one-electron contribution =    -241.71464452 Ry
     hartree contribution      =     145.88948684 Ry
     xc contribution           =     -61.24845441 Ry
     ewald contribution        =    -185.03995210 Ry
     Hubbard energy            =       0.24435269 Ry
     one-center paw contrib.   =    -178.74271953 Ry

     convergence has been achieved in  11 iterations
     force_hub    :     29.33s CPU      4.22s WALL (       2 calls)
     dndtau       :     25.09s CPU      3.71s WALL (    1512 calls)
     dprojdtau    :      3.12s CPU      0.60s WALL (    1512 calls)
     calc_doverla :     13.20s CPU      1.99s WALL (    1512 calls)
     matel_dSdtau :     18.88s CPU      2.63s WALL (    3024 calls)

     Forces acting on atoms (cartesian axes, Ry/au):

     atom    1 type  1   force =     0.00185865   -0.01332261   -0.00870490
     atom    2 type  1   force =    -0.00049040    0.00670148   -0.01598882
     atom    3 type  3   force =    -0.00063740   -0.01517965    0.00586899
     atom    4 type  2   force =    -0.00117401    0.00949887    0.01417769
     atom    5 type  2   force =     0.00069230    0.00065680    0.00000297
     atom    6 type  2   force =     0.00038880    0.00509671   -0.00165168
     atom    7 type  2   force =    -0.00063795    0.00654840    0.00629574

     Total force =     0.035044     Total SCF correction =     0.000374


     Computing stress (Cartesian axis) and pressure

     stres_hub    :     78.50s CPU     10.69s WALL (       2 calls)
     dprojdepsilo :     63.50s CPU      8.70s WALL (     648 calls)
     dprojdeps1   :      7.03s CPU      0.98s WALL (     648 calls)
     dprojdeps2   :     35.64s CPU      4.81s WALL (     648 calls)
     dprojdeps3   :     20.75s CPU      2.90s WALL (     648 calls)
          total   stress  (Ry/bohr**3)                   (kbar)     P=       -0.89
   0.00009233  -0.00000027   0.00000046           13.58       -0.04        0.07
  -0.00000027  -0.00004759  -0.00004156           -0.04       -7.00       -6.11
   0.00000046  -0.00004156  -0.00006296            0.07       -6.11       -9.26

     Energy error            =      6.1E-03 Ry
     Gradient error          =      1.6E-02 Ry/Bohr
     Cell gradient error     =      1.4E+01 kbar

     number of scf cycles    =   2
     number of bfgs steps    =   1

     enthalpy           old  =    -520.6108988525 Ry
     enthalpy           new  =    -520.6170101362 Ry

     CASE: enthalpy          _new < enthalpy          _old

     new trust radius        =       0.0284508573 bohr
     new conv_thr            =       0.0000001599 Ry

     new unit-cell volume =    486.28421 a.u.^3 (    72.05988 Ang^3 )
     density =      3.86086 g/cm^3

CELL_PARAMETERS (angstrom)
   2.961809500   0.000172850   0.000037542
   1.502507218   6.152611703  -0.038364402
   2.961271550   3.149492843   3.934813031

ATOMIC_POSITIONS (angstrom)
Mg               3.4347365400        4.8055752474        1.4843027551
Mg               0.4802596435        1.0788683554        0.3724790948
Mn               4.9231864787        2.3223913396        2.5154437535
O                3.4655904719        6.8638629206        1.7465931065
O                4.9196522215        4.2827144187        2.8678680746
O                3.4421195212        2.8008216807        1.3582080632
O                4.9438274252        8.3260203994        3.8320110172



     Writing config-only to output data dir .\out\\qgan.save\ :
     XML data file
     NEW-OLD atomic charge density approx. for the potential
     New effective cutoffs (rho, wfc):  498.08   62.33

     Check: negative core charge=   -0.000002

     Atomic wfc used for Hubbard projectors are orthogonalized


     total cpu time spent up to now is      127.9 secs

     Self-consistent Calculation

     iteration #  1     ecut=    60.00 Ry     beta= 0.70
     Davidson diagonalization with overlap
     ethr =  1.00E-06,  avg # of iterations = 11.1

     =================== HUBBARD OCCUPATIONS ===================
     ------------------------ ATOM    3 ------------------------
     Tr[ns(  3)] =   5.26093
     eigenvalues:
       0.218  0.318  0.403  0.717  0.974
     eigenvectors (columns):
       0.552  0.000  0.203 -0.000  0.808
      -0.001  0.958  0.001  0.287  0.000
      -0.796 -0.002  0.418  0.001  0.439
       0.249 -0.002  0.886  0.003 -0.392
      -0.001  0.287  0.003 -0.958 -0.001
     occupation matrix ns (before diag.):
       0.720  0.000  0.284 -0.206 -0.000
       0.000  0.351  0.000  0.000 -0.110
       0.284  0.000  0.396 -0.062 -0.001
      -0.206  0.000 -0.062  0.479 -0.001
      -0.000 -0.110 -0.001 -0.001  0.684

     Number of occupied Hubbard levels =    5.2609

     total cpu time spent up to now is      134.0 secs

     total energy              =    -520.61672914 Ry
     estimated scf accuracy    <       0.00284989 Ry

     iteration #  2     ecut=    60.00 Ry     beta= 0.70
     Davidson diagonalization with overlap
     ethr =  6.63E-06,  avg # of iterations =  4.9

     total cpu time spent up to now is      136.9 secs

     total energy              =    -520.61444251 Ry
     estimated scf accuracy    <       0.03814277 Ry

     iteration #  3     ecut=    60.00 Ry     beta= 0.70
     Davidson diagonalization with overlap
     ethr =  6.63E-06,  avg # of iterations =  3.6

     total cpu time spent up to now is      139.6 secs

     total energy              =    -520.61796161 Ry
     estimated scf accuracy    <       0.00188289 Ry

     iteration #  4     ecut=    60.00 Ry     beta= 0.70
     Davidson diagonalization with overlap
     ethr =  4.38E-06,  avg # of iterations =  1.8

     total cpu time spent up to now is      141.9 secs

     total energy              =    -520.61834590 Ry
     estimated scf accuracy    <       0.00021344 Ry

     iteration #  5     ecut=    60.00 Ry     beta= 0.70
     Davidson diagonalization with overlap
     ethr =  4.96E-07,  avg # of iterations =  4.6

     total cpu time spent up to now is      144.6 secs

     total energy              =    -520.61842021 Ry
     estimated scf accuracy    <       0.00012119 Ry

     iteration #  6     ecut=    60.00 Ry     beta= 0.70
     Davidson diagonalization with overlap
     ethr =  2.82E-07,  avg # of iterations =  1.9

     total cpu time spent up to now is      146.8 secs

     total energy              =    -520.61842477 Ry
     estimated scf accuracy    <       0.00004581 Ry

     iteration #  7     ecut=    60.00 Ry     beta= 0.70
     Davidson diagonalization with overlap
     ethr =  1.07E-07,  avg # of iterations =  2.1

     total cpu time spent up to now is      149.1 secs

     total energy              =    -520.61843124 Ry
     estimated scf accuracy    <       0.00000444 Ry

     iteration #  8     ecut=    60.00 Ry     beta= 0.70
     Davidson diagonalization with overlap
     ethr =  1.03E-08,  avg # of iterations =  8.8

     total cpu time spent up to now is      153.0 secs

     total energy              =    -520.61843674 Ry
     estimated scf accuracy    <       0.00000448 Ry

     iteration #  9     ecut=    60.00 Ry     beta= 0.70
     Davidson diagonalization with overlap
     ethr =  1.03E-08,  avg # of iterations =  1.4

     total cpu time spent up to now is      155.1 secs

     total energy              =    -520.61843688 Ry
     estimated scf accuracy    <       0.00000167 Ry

     iteration # 10     ecut=    60.00 Ry     beta= 0.70
     Davidson diagonalization with overlap
     ethr =  3.88E-09,  avg # of iterations =  4.9

     total cpu time spent up to now is      157.8 secs

     total energy              =    -520.61843735 Ry
     estimated scf accuracy    <       0.00000055 Ry

     iteration # 11     ecut=    60.00 Ry     beta= 0.70
     Davidson diagonalization with overlap
     c_bands:  4 eigenvalues not converged
     ethr =  1.27E-09,  avg # of iterations = 12.0

     total cpu time spent up to now is      161.8 secs

     total energy              =    -520.61843819 Ry
     estimated scf accuracy    <       0.00000039 Ry

     iteration # 12     ecut=    60.00 Ry     beta= 0.70
     Davidson diagonalization with overlap
     ethr =  8.95E-10,  avg # of iterations =  1.8

     total cpu time spent up to now is      164.1 secs

     total energy              =    -520.61843797 Ry
     estimated scf accuracy    <       0.00000022 Ry

     iteration # 13     ecut=    60.00 Ry     beta= 0.70
     Davidson diagonalization with overlap
     ethr =  5.16E-10,  avg # of iterations =  5.7

     total cpu time spent up to now is      167.1 secs

     total energy              =    -520.61843853 Ry
     estimated scf accuracy    <       0.00000019 Ry

     iteration # 14     ecut=    60.00 Ry     beta= 0.70
     Davidson diagonalization with overlap
     ethr =  4.38E-10,  avg # of iterations =  2.8

     total cpu time spent up to now is      169.5 secs

     total energy              =    -520.61843848 Ry
     estimated scf accuracy    <       0.00000017 Ry

     iteration # 15     ecut=    60.00 Ry     beta= 0.70
     Davidson diagonalization with overlap
     ethr =  3.86E-10,  avg # of iterations =  3.0

     total cpu time spent up to now is      172.0 secs

     End of self-consistent calculation

     =================== HUBBARD OCCUPATIONS ===================
     ------------------------ ATOM    3 ------------------------
     Tr[ns(  3)] =   5.23083
     eigenvalues:
       0.215  0.317  0.400  0.711  0.973
     eigenvectors (columns):
       0.546 -0.001  0.205  0.002  0.812
      -0.002 -0.959 -0.001  0.283  0.000
      -0.799  0.001  0.418 -0.001  0.432
       0.252 -0.001  0.885  0.003 -0.392
       0.002 -0.283  0.002 -0.959 -0.000
     occupation matrix ns (before diag.):
       0.723  0.000  0.282 -0.208 -0.001
       0.000  0.348 -0.000  0.000 -0.107
       0.282 -0.000  0.388 -0.060  0.001
      -0.208  0.000 -0.060  0.476 -0.001
      -0.001 -0.107  0.001 -0.001  0.679

     Number of occupied Hubbard levels =    5.2308

          k = 0.0000 0.0000 0.0000 (  3893 PWs)   bands (ev):

   -72.8714 -42.2986 -41.5142 -40.9114 -11.8911 -10.5736 -10.2358 -10.0181
     0.8039   1.5133   2.1951   2.6813   3.0738   3.9127   4.2149   4.3670
     4.6552   5.4602   5.6372   5.7352   6.1267   7.0961   8.0430  10.1140
    10.4354  11.7772

          k =-0.0000 0.0012 0.1870 (  3895 PWs)   bands (ev):

   -72.8714 -42.2987 -41.5143 -40.9114 -11.6968 -10.7184 -10.3141 -10.0575
     0.9897   1.7935   2.0008   3.0646   3.0769   3.8755   4.0690   4.4811
     4.6631   5.0001   5.5732   5.6498   5.8342   7.0552   8.1454   9.8283
    10.4827  12.8838

          k = 0.0000-0.0023-0.3740 (  3894 PWs)   bands (ev):

   -72.8713 -42.2988 -41.5143 -40.9114 -11.3735 -10.9843 -10.3885 -10.1103
     1.2173   1.8548   2.5473   3.0339   3.0737   3.5099   3.8709   4.5694
     4.5869   4.8538   5.5060   5.5596   5.6930   7.0136   8.2154   9.6056
    10.5304  14.4859

          k =-0.0000 0.1196-0.0957 (  3889 PWs)   bands (ev):

   -72.8714 -42.2987 -41.5143 -40.9114 -11.7906 -10.6036 -10.3606 -10.0056
     1.0297   1.5181   2.1796   2.7910   3.1099   3.9369   4.1530   4.3093
     4.7540   5.0516   5.5233   5.6852   6.1239   7.1194   8.0442  10.1751
    10.4809  12.5638

          k =-0.0000 0.1208 0.0913 (  3904 PWs)   bands (ev):

   -72.8714 -42.2987 -41.5142 -40.9114 -11.7335 -10.8043 -10.2109 -10.0124
     0.9461   1.8033   2.0639   2.8986   3.0410   3.8397   3.9131   4.4843
     4.6925   5.2623   5.6095   5.6387   5.9092   7.0920   8.1422   9.8183
    10.4363  12.5375

          k =-0.0000 0.1173-0.4698 (  3922 PWs)   bands (ev):

   -72.8714 -42.2988 -41.5143 -40.9114 -11.4024 -11.0832 -10.2893 -10.0549
     1.2874   1.6413   2.4545   3.0407   3.1643   3.5214   3.8971   4.3810
     4.5903   5.1156   5.4803   5.5446   5.7439   7.0494   8.2418   9.5872
    10.4841  13.8696

          k =-0.0000 0.1184-0.2828 (  3906 PWs)   bands (ev):

   -72.8713 -42.2987 -41.5143 -40.9114 -11.5529 -10.7894 -10.4406 -10.0463
     1.2196   1.7826   2.2262   3.0008   3.1107   3.8360   3.8956   4.4316
     4.5453   4.9509   5.4717   5.5956   5.8312   7.0815   8.1659   9.9074
    10.5278  14.1165

          k = 0.0000-0.2392 0.1915 (  3908 PWs)   bands (ev):

   -72.8714 -42.2987 -41.5143 -40.9114 -11.6649 -10.6826 -10.4581  -9.9955
     1.0264   1.8247   2.3983   2.8351   3.1485   3.6385   3.9673   4.2442
     4.6098   5.0458   5.5124   5.6346   6.1251   7.1429   8.0411  10.2404
    10.5258  13.8531

          k = 0.0000-0.2380 0.3785 (  3906 PWs)   bands (ev):

   -72.8714 -42.2987 -41.5143 -40.9114 -11.5989 -10.8729 -10.3282 -10.0040
     1.3325   1.7632   1.9715   2.9243   3.0728   3.7968   3.9372   4.4337
     4.7988   4.9461   5.4765   5.5850   5.8603   7.1166   8.1748   9.9019
    10.4816  13.4562

          k = 0.0000-0.2415-0.1826 (  3902 PWs)   bands (ev):

   -72.8714 -42.2988 -41.5142 -40.9114 -11.4236 -11.1705 -10.1985 -10.0104
     1.1727   1.7608   2.3290   3.0094   3.0545   3.7155   3.9251   4.1375
     4.5984   5.2456   5.5360   5.6004   5.8099   7.0835   8.2145   9.5539
    10.4377  13.7601

          k = 0.2497-0.0618-0.1384 (  3913 PWs)   bands (ev):

   -72.8685 -42.2957 -41.5086 -40.9510 -11.3360 -10.5842 -10.1751 -10.0100
     1.3890   1.6667   2.1376   2.4267   2.8172   3.0640   3.8333   4.0227
     4.3012   5.0325   5.3588   5.5353   6.1769   6.9781   8.0449   9.7496
    10.1589  13.9682

          k = 0.2497-0.0607 0.0486 (  3893 PWs)   bands (ev):

   -72.8685 -42.2956 -41.5085 -40.9510 -11.4360 -10.4632 -10.2140  -9.9756
     1.4115   1.8087   2.0533   2.4448   2.8582   2.9055   3.7181   3.9902
     4.3218   5.0365   5.4200   5.6052   6.1056   7.0787   7.9712   9.8117
    10.1349  13.6307

          k = 0.2497-0.0642-0.5125 (  3920 PWs)   bands (ev):

   -72.8685 -42.2957 -41.5086 -40.9510 -11.2490 -10.5447 -10.3111 -10.0254
     1.3211   1.6685   2.1979   2.5710   2.7267   3.0306   3.9890   4.0973
     4.4213   4.9986   5.0830   5.5075   6.2258   6.9748   8.0389   9.6946
    10.0771  14.7364

          k = 0.2497-0.0630-0.3254 (  3917 PWs)   bands (ev):

   -72.8685 -42.2957 -41.5086 -40.9509 -11.0702 -10.7498 -10.2634 -10.0639
     1.3170   1.6447   2.1043   2.4575   2.8000   3.3549   3.9125   4.2010
     4.3852   4.9297   5.0565   5.4974   6.2409   6.8929   8.1059   9.8471
     9.9148  15.1079

          k = 0.2497 0.0578-0.2342 (  3918 PWs)   bands (ev):

   -72.8685 -42.2957 -41.5086 -40.9510 -11.2517 -10.5435 -10.3084 -10.0259
     1.3199   1.6691   2.1987   2.5662   2.7265   3.0289   3.9857   4.0960
     4.4264   5.0089   5.0770   5.5095   6.2268   6.9760   8.0389   9.6937
    10.0755  14.7276

          k = 0.2497 0.0589-0.0471 (  3898 PWs)   bands (ev):

   -72.8685 -42.2956 -41.5085 -40.9510 -11.4378 -10.4631 -10.2118  -9.9755
     1.4116   1.8074   2.0544   2.4425   2.8437   2.9185   3.7169   3.9858
     4.3291   5.0284   5.4335   5.6044   6.1017   7.0796   7.9712   9.8106
    10.1360  13.6258

          k = 0.2497 0.0554-0.6082 (  3911 PWs)   bands (ev):

   -72.8685 -42.2957 -41.5086 -40.9509 -11.3354 -10.5828 -10.1769 -10.0104
     1.3867   1.6703   2.1364   2.4249   2.8271   3.0573   3.8335   4.0226
     4.3058   5.0278   5.3543   5.5364   6.1793   6.9794   8.0435   9.7464
    10.1598  13.9777

          k = 0.2497 0.0566-0.4212 (  3915 PWs)   bands (ev):

   -72.8685 -42.2957 -41.5086 -40.9509 -11.0700 -10.7477 -10.2652 -10.0648
     1.3166   1.6442   2.1025   2.4567   2.8014   3.3610   3.9165   4.1977
     4.3818   4.9261   5.0596   5.4986   6.2425   6.8938   8.1035   9.8463
     9.9118  15.1139

          k = 0.2497-0.3011 0.0530 (  3925 PWs)   bands (ev):

   -72.8685 -42.2957 -41.5086 -40.9510 -11.1807 -10.6416 -10.3064 -10.0126
     1.4813   1.8114   2.1132   2.4650   2.7342   3.1359   3.6946   4.0350
     4.4062   4.9810   5.1383   5.5679   6.2102   6.9861   8.0590   9.6948
    10.1568  14.7243

          k = 0.2497-0.2999 0.2401 (  3915 PWs)   bands (ev):

   -72.8685 -42.2956 -41.5086 -40.9510 -11.3134 -10.4840 -10.3485  -9.9771
     1.4018   1.9330   2.2639   2.5269   2.7016   2.9065   3.5414   3.9512
     4.5204   5.0028   5.1473   5.6231   6.1757   7.0980   7.9646   9.7482
    10.1160  14.5118

          k = 0.2497-0.3034-0.3210 (  3914 PWs)   bands (ev):

   -72.8685 -42.2957 -41.5086 -40.9510 -11.2830 -10.6490 -10.1854  -9.9992
     1.6141   1.7843   1.9109   2.5501   2.8322   3.0898   3.5802   3.8949
     4.1893   5.0959   5.4023   5.6054   6.1539   6.9847   8.0609   9.7626
    10.2429  13.8964

          k = 0.2497-0.3022-0.1340 (  3920 PWs)   bands (ev):

   -72.8685 -42.2957 -41.5086 -40.9509 -11.0656 -10.8763 -10.1610 -10.0308
     1.5693   1.7147   1.9373   2.5598   2.8247   3.1189   3.5532   4.1823
     4.2982   4.8917   5.3713   5.5574   6.2084   6.8861   8.1246   9.9373
    10.0118  14.6349

          k = 0.2497-0.1815-0.0427 (  3913 PWs)   bands (ev):

   -72.8685 -42.2957 -41.5086 -40.9509 -11.2806 -10.6498 -10.1875  -9.9991
     1.6122   1.7863   1.9082   2.5593   2.8332   3.0811   3.5816   3.8994
     4.1905   5.1004   5.3876   5.6112   6.1563   6.9835   8.0600   9.7655
    10.2384  13.8971

          k = 0.2497-0.1803 0.1443 (  3921 PWs)   bands (ev):

   -72.8685 -42.2956 -41.5086 -40.9510 -11.3110 -10.4847 -10.3507  -9.9771
     1.4000   1.9326   2.2674   2.5329   2.7065   2.9003   3.5391   3.9529
     4.5176   4.9976   5.1512   5.6225   6.1762   7.0969   7.9647   9.7479
    10.1165  14.5221

          k = 0.2497-0.1838-0.4167 (  3925 PWs)   bands (ev):

   -72.8685 -42.2957 -41.5086 -40.9510 -11.1811 -10.6438 -10.3045 -10.0117
     1.4820   1.8151   2.1115   2.4692   2.7253   3.1415   3.6853   4.0378
     4.4057   4.9856   5.1382   5.5649   6.2067   6.9854   8.0605   9.6961
    10.1616  14.7134

          k = 0.2497-0.1826-0.2297 (  3914 PWs)   bands (ev):

   -72.8685 -42.2957 -41.5086 -40.9509 -11.0653 -10.8784 -10.1591 -10.0305
     1.5708   1.7119   1.9412   2.5630   2.8201   3.1183   3.5472   4.1856
     4.2978   4.8889   5.3802   5.5533   6.2062   6.8849   8.1265   9.9371
    10.0160  14.6321

          k =-0.4994 0.1237 0.2768 (  3922 PWs)   bands (ev):

   -72.8661 -42.2926 -41.5029 -40.9902 -10.7012 -10.3808 -10.2406 -10.0833
     0.6972   1.2361   1.8567   2.2770   2.6039   3.5523   3.8824   4.3004
     4.5405   4.8459   4.8511   5.3069   6.0025   6.8316   7.9406  10.0349
    10.1591  15.3445

          k =-0.4994 0.1249 0.4639 (  3918 PWs)   bands (ev):

   -72.8661 -42.2926 -41.5029 -40.9902 -10.7440 -10.4002 -10.2247 -10.0431
     0.9062   1.2796   1.9625   2.3770   2.6097   3.4643   3.6871   4.2406
     4.4152   4.5833   4.9476   5.1715   5.9992   7.0009   7.9211   9.8469
    10.1187  15.8562

          k =-0.4994 0.1214-0.0972 (  3936 PWs)   bands (ev):

   -72.8661 -42.2926 -41.5029 -40.9902 -10.7813 -10.4205 -10.2081 -10.0083
     1.1011   1.3846   2.1915   2.4347   2.6799   3.0912   3.4290   4.1907
     4.3440   4.5762   4.8802   5.0837   5.9909   7.1299   7.9062   9.6301
    10.1362  16.0146

          k =-0.4994 0.2433 0.1811 (  3934 PWs)   bands (ev):

   -72.8661 -42.2927 -41.5029 -40.9902 -10.7013 -10.3801 -10.2410 -10.0834
     0.7549   1.1490   1.8565   2.2892   2.5656   3.7232   3.8550   4.2449
     4.5202   4.8187   4.8735   5.3004   6.0017   6.8353   7.9329  10.0552
    10.1280  15.6976

          k =-0.4994 0.2445 0.3681 (  3923 PWs)   bands (ev):

   -72.8661 -42.2926 -41.5029 -40.9902 -10.7452 -10.4039 -10.2204 -10.0423
     0.9007   1.3046   1.9665   2.2323   2.8039   3.3683   3.6955   4.2192
     4.4245   4.5871   4.9699   5.1721   5.9973   7.0065   7.9205   9.8295
    10.1359  15.6490

          k =-0.4994 0.2410-0.1929 (  3915 PWs)   bands (ev):

   -72.8661 -42.2926 -41.5029 -40.9902 -10.7836 -10.4176 -10.2115 -10.0051
     1.1192   1.3544   2.1493   2.5207   2.7139   3.0191   3.4746   4.1559
     4.2985   4.5690   4.8651   5.1398   5.9946   7.1371   7.9057   9.6378
    10.1259  15.9939

          k =-0.4994 0.2421-0.0059 (  3927 PWs)   bands (ev):

   -72.8661 -42.2926 -41.5029 -40.9902 -10.7438 -10.4009 -10.2239 -10.0433
     0.8991   1.3058   1.9596   2.2328   2.8019   3.3717   3.6954   4.2301
     4.4308   4.5840   4.9694   5.1686   5.9981   7.0037   7.9180   9.8326
    10.1356  15.6352

          k =-0.4994-0.1155 0.4683 (  3928 PWs)   bands (ev):

   -72.8661 -42.2927 -41.5029 -40.9902 -10.7016 -10.3780 -10.2437 -10.0823
     0.7009   1.2355   1.8526   2.2657   2.5900   3.5544   3.9009   4.3123
     4.5484   4.8405   4.8541   5.3039   6.0033   6.8305   7.9350  10.0295
    10.1613  15.3338

          k =-0.4994-0.1144 0.6553 (  3915 PWs)   bands (ev):

   -72.8661 -42.2926 -41.5029 -40.9902 -10.7456 -10.4012 -10.2237 -10.0412
     0.9128   1.2771   1.9592   2.3718   2.5994   3.4663   3.6893   4.2506
     4.4109   4.5900   4.9474   5.1728   5.9991   7.0025   7.9187   9.8423
    10.1194  15.8734

          k =-0.4994-0.1179 0.0943 (  3928 PWs)   bands (ev):

   -72.8661 -42.2926 -41.5029 -40.9902 -10.7840 -10.4238 -10.2042 -10.0056
     1.1124   1.3814   2.1876   2.4286   2.6713   3.0909   3.4339   4.1856
     4.3456   4.5768   4.8873   5.0851   5.9899   7.1343   7.9057   9.6207
    10.1373  16.0231

     the Fermi energy is     7.0469 ev

!    total energy              =    -520.61843891 Ry
     total all-electron energy =     -3720.871697 Ry
     estimated scf accuracy    <       0.00000003 Ry
     smearing contrib. (-TS)   =      -0.00519996 Ry
     internal energy E=F+TS    =    -520.61323894 Ry

     The total energy is F=E-TS. E is the sum of the following terms:
     one-electron contribution =    -241.18551748 Ry
     hartree contribution      =     145.70621272 Ry
     xc contribution           =     -61.26640532 Ry
     ewald contribution        =    -185.36915492 Ry
     Hubbard energy            =       0.24551976 Ry
     one-center paw contrib.   =    -178.74389370 Ry

     convergence has been achieved in  15 iterations
     force_hub    :     42.81s CPU      6.40s WALL (       3 calls)
     dndtau       :     37.41s CPU      5.65s WALL (    2268 calls)
     dprojdtau    :      5.36s CPU      0.88s WALL (    2268 calls)
     calc_doverla :     19.38s CPU      3.02s WALL (    2268 calls)
     matel_dSdtau :     28.19s CPU      4.05s WALL (    4536 calls)

     Forces acting on atoms (cartesian axes, Ry/au):

     atom    1 type  1   force =     0.00168659   -0.00971451   -0.00750814
     atom    2 type  1   force =    -0.00047500    0.00657166   -0.01401047
     atom    3 type  3   force =    -0.00028462    0.00572495    0.00879930
     atom    4 type  2   force =    -0.00093552   -0.00585099    0.00625050
     atom    5 type  2   force =     0.00056994    0.00311930    0.00108705
     atom    6 type  2   force =     0.00015876   -0.00357630   -0.00266723
     atom    7 type  2   force =    -0.00072016    0.00372587    0.00804900

     Total force =     0.026232     Total SCF correction =     0.000307


     Computing stress (Cartesian axis) and pressure

     stres_hub    :    119.52s CPU     15.99s WALL (       3 calls)
     dprojdepsilo :     97.05s CPU     12.99s WALL (     972 calls)
     dprojdeps1   :      9.94s CPU      1.47s WALL (     972 calls)
     dprojdeps2   :     53.47s CPU      7.20s WALL (     972 calls)
     dprojdeps3   :     33.56s CPU      4.31s WALL (     972 calls)
          total   stress  (Ry/bohr**3)                   (kbar)     P=        7.95
   0.00005118  -0.00000265   0.00000151            7.53       -0.39        0.22
  -0.00000265   0.00009442   0.00003347           -0.39       13.89        4.92
   0.00000151   0.00003347   0.00001657            0.22        4.92        2.44

     Energy error            =      1.4E-03 Ry
     Gradient error          =      1.4E-02 Ry/Bohr
     Cell gradient error     =      1.4E+01 kbar

     number of scf cycles    =   3
     number of bfgs steps    =   2

     enthalpy           old  =    -520.6170101362 Ry
     enthalpy           new  =    -520.6184389053 Ry

     CASE: enthalpy          _new < enthalpy          _old

     new trust radius        =       0.0290412141 bohr
     new conv_thr            =       0.0000001401 Ry

     new unit-cell volume =    486.89108 a.u.^3 (    72.14981 Ang^3 )
     density =      3.85605 g/cm^3

CELL_PARAMETERS (angstrom)
   2.968588315  -0.000051153   0.000190725
   1.505466077   6.155863214  -0.038893829
   2.968009087   3.150672680   3.928391756

ATOMIC_POSITIONS (angstrom)
Mg               3.4440550906        4.7971253700        1.4740072130
Mg               0.4808154450        1.0861229310        0.3580085287
Mn               4.9339756404        2.3194029105        2.5177175105
O                3.4720443631        6.8686831667        1.7526154101
O                4.9313523789        4.2857550351        2.8634069012
O                3.4500969167        2.8018261113        1.3548039978
O                4.9540150174        8.3349144777        3.8319067975



     Writing config-only to output data dir .\out\\qgan.save\ :
     XML data file
     NEW-OLD atomic charge density approx. for the potential
     New effective cutoffs (rho, wfc):  498.21   62.36

     Check: negative core charge=   -0.000002

     Atomic wfc used for Hubbard projectors are orthogonalized


     total cpu time spent up to now is      182.4 secs

     Self-consistent Calculation

     iteration #  1     ecut=    60.00 Ry     beta= 0.70
     Davidson diagonalization with overlap
     ethr =  1.00E-06,  avg # of iterations = 11.1

     =================== HUBBARD OCCUPATIONS ===================
     ------------------------ ATOM    3 ------------------------
     Tr[ns(  3)] =   5.24296
     eigenvalues:
       0.218  0.315  0.401  0.713  0.974
     eigenvectors (columns):
       0.546  0.001 -0.203  0.002  0.813
      -0.002  0.960  0.002  0.281  0.000
      -0.798 -0.001 -0.422 -0.001  0.431
       0.255  0.001 -0.884  0.003 -0.393
       0.002  0.281 -0.002 -0.960 -0.000
     occupation matrix ns (before diag.):
       0.725  0.000  0.280 -0.208 -0.001
       0.000  0.346 -0.000  0.000 -0.108
       0.280 -0.000  0.391 -0.060  0.001
      -0.208  0.000 -0.060  0.477 -0.001
      -0.001 -0.108  0.001 -0.001  0.682

     Number of occupied Hubbard levels =    5.2430

     total cpu time spent up to now is      188.2 secs

     total energy              =    -520.61892694 Ry
     estimated scf accuracy    <       0.00073934 Ry

     iteration #  2     ecut=    60.00 Ry     beta= 0.70
     Davidson diagonalization with overlap
     ethr =  1.72E-06,  avg # of iterations =  4.2

     total cpu time spent up to now is      191.0 secs

     total energy              =    -520.61837780 Ry
     estimated scf accuracy    <       0.00764702 Ry

     iteration #  3     ecut=    60.00 Ry     beta= 0.70
     Davidson diagonalization with overlap
     ethr =  1.72E-06,  avg # of iterations =  3.5

     total cpu time spent up to now is      193.5 secs

     total energy              =    -520.61913117 Ry
     estimated scf accuracy    <       0.00077905 Ry

     iteration #  4     ecut=    60.00 Ry     beta= 0.70
     Davidson diagonalization with overlap
     ethr =  1.72E-06,  avg # of iterations =  1.8

     total cpu time spent up to now is      195.6 secs

     total energy              =    -520.61926200 Ry
     estimated scf accuracy    <       0.00005709 Ry

     iteration #  5     ecut=    60.00 Ry     beta= 0.70
     Davidson diagonalization with overlap
     ethr =  1.33E-07,  avg # of iterations =  5.7

     total cpu time spent up to now is      198.7 secs

     total energy              =    -520.61932540 Ry
     estimated scf accuracy    <       0.00010725 Ry

     iteration #  6     ecut=    60.00 Ry     beta= 0.70
     Davidson diagonalization with overlap
     ethr =  1.33E-07,  avg # of iterations =  1.2

     total cpu time spent up to now is      200.9 secs

     total energy              =    -520.61932433 Ry
     estimated scf accuracy    <       0.00004756 Ry

     iteration #  7     ecut=    60.00 Ry     beta= 0.70
     Davidson diagonalization with overlap
     ethr =  1.11E-07,  avg # of iterations =  1.2

     total cpu time spent up to now is      203.0 secs

     total energy              =    -520.61932203 Ry
     estimated scf accuracy    <       0.00001754 Ry

     iteration #  8     ecut=    60.00 Ry     beta= 0.70
     Davidson diagonalization with overlap
     ethr =  4.08E-08,  avg # of iterations =  2.0

     total cpu time spent up to now is      205.3 secs

     total energy              =    -520.61932504 Ry
     estimated scf accuracy    <       0.00000099 Ry

     iteration #  9     ecut=    60.00 Ry     beta= 0.70
     Davidson diagonalization with overlap
     c_bands:  1 eigenvalues not converged
     c_bands:  1 eigenvalues not converged
     c_bands:  1 eigenvalues not converged
     c_bands:  1 eigenvalues not converged
     ethr =  2.31E-09,  avg # of iterations = 15.2

     total cpu time spent up to now is      210.5 secs

     total energy              =    -520.61932781 Ry
     estimated scf accuracy    <       0.00000208 Ry

     iteration # 10     ecut=    60.00 Ry     beta= 0.70
     Davidson diagonalization with overlap
     ethr =  2.31E-09,  avg # of iterations =  1.3

     total cpu time spent up to now is      212.6 secs

     total energy              =    -520.61932748 Ry
     estimated scf accuracy    <       0.00000158 Ry

     iteration # 11     ecut=    60.00 Ry     beta= 0.70
     Davidson diagonalization with overlap
     ethr =  2.31E-09,  avg # of iterations =  2.6

     total cpu time spent up to now is      215.0 secs

     total energy              =    -520.61932776 Ry
     estimated scf accuracy    <       0.00000026 Ry

     iteration # 12     ecut=    60.00 Ry     beta= 0.70
     Davidson diagonalization with overlap
     ethr =  6.12E-10,  avg # of iterations =  9.0

     total cpu time spent up to now is      219.0 secs

     total energy              =    -520.61932835 Ry
     estimated scf accuracy    <       0.00000212 Ry

     iteration # 13     ecut=    60.00 Ry     beta= 0.70
     Davidson diagonalization with overlap
     ethr =  6.12E-10,  avg # of iterations =  5.4

     total cpu time spent up to now is      221.9 secs

     total energy              =    -520.61932733 Ry
     estimated scf accuracy    <       0.00000044 Ry

     iteration # 14     ecut=    60.00 Ry     beta= 0.70
     Davidson diagonalization with overlap
     ethr =  6.12E-10,  avg # of iterations =  5.8

     total cpu time spent up to now is      225.0 secs

     total energy              =    -520.61932884 Ry
     estimated scf accuracy    <       0.00000053 Ry

     iteration # 15     ecut=    60.00 Ry     beta= 0.70
     Davidson diagonalization with overlap
     ethr =  6.12E-10,  avg # of iterations =  2.0

     total cpu time spent up to now is      227.3 secs

     total energy              =    -520.61932857 Ry
     estimated scf accuracy    <       0.00000050 Ry

     iteration # 16     ecut=    60.00 Ry     beta= 0.70
     Davidson diagonalization with overlap
     ethr =  6.12E-10,  avg # of iterations =  2.0

     total cpu time spent up to now is      229.5 secs

     End of self-consistent calculation

     =================== HUBBARD OCCUPATIONS ===================
     ------------------------ ATOM    3 ------------------------
     Tr[ns(  3)] =   5.23268
     eigenvalues:
       0.217  0.315  0.400  0.711  0.974
     eigenvectors (columns):
       0.539 -0.001 -0.203 -0.002 -0.818
      -0.002 -0.961  0.002 -0.275 -0.000
      -0.802  0.000 -0.422  0.002 -0.424
       0.259 -0.002 -0.884 -0.002  0.390
       0.003 -0.275 -0.001  0.961  0.000
     occupation matrix ns (before diag.):
       0.730  0.001  0.278 -0.208 -0.001
       0.001  0.345 -0.000  0.000 -0.105
       0.278 -0.000  0.385 -0.057  0.001
      -0.208  0.000 -0.057  0.475 -0.001
      -0.001 -0.105  0.001 -0.001  0.681

     Number of occupied Hubbard levels =    5.2327

          k = 0.0000 0.0000 0.0000 (  3893 PWs)   bands (ev):

   -72.8815 -42.3072 -41.5285 -40.9199 -11.8904 -10.5787 -10.2512 -10.0147
     0.8085   1.5083   2.2031   2.6790   3.0769   3.8862   4.2005   4.3410
     4.6450   5.4524   5.6173   5.7025   6.1100   7.1025   8.0287  10.0972
    10.3940  11.7527

          k =-0.0000 0.0012 0.1873 (  3895 PWs)   bands (ev):

   -72.8814 -42.3073 -41.5286 -40.9199 -11.6947 -10.7233 -10.3300 -10.0553
     0.9939   1.7958   1.9931   3.0689   3.0784   3.8509   4.0538   4.4544
     4.6666   4.9827   5.5658   5.6186   5.8056   7.0609   8.1301   9.8101
    10.4403  12.8611

          k = 0.0000-0.0024-0.3746 (  3894 PWs)   bands (ev):

   -72.8813 -42.3074 -41.5286 -40.9199 -11.3658 -10.9926 -10.4052 -10.1094
     1.2195   1.8564   2.5463   3.0261   3.0731   3.5030   3.8490   4.5450
     4.5791   4.8544   5.4952   5.5301   5.6578   7.0186   8.2029   9.5834
    10.4869  14.4614

          k = 0.0000 0.1195-0.0959 (  3889 PWs)   bands (ev):

   -72.8814 -42.3072 -41.5286 -40.9199 -11.7891 -10.6064 -10.3790 -10.0022
     1.0305   1.5203   2.1821   2.7869   3.1135   3.9105   4.1452   4.2828
     4.7485   5.0318   5.5113   5.6535   6.1063   7.1251   8.0266  10.1582
    10.4391  12.5400

          k =-0.0000 0.1207 0.0914 (  3904 PWs)   bands (ev):

   -72.8815 -42.3073 -41.5285 -40.9199 -11.7330 -10.8071 -10.2266 -10.0108
     0.9502   1.7940   2.0729   2.9001   3.0423   3.8274   3.8882   4.4579
     4.6847   5.2504   5.5994   5.6077   5.8815   7.0976   8.1269   9.8018
    10.3943  12.5160

          k = 0.0000 0.1172-0.4705 (  3922 PWs)   bands (ev):

   -72.8814 -42.3074 -41.5286 -40.9199 -11.3983 -11.0880 -10.3053 -10.0548
     1.2903   1.6426   2.4497   3.0402   3.1633   3.5146   3.8744   4.3774
     4.5628   5.1125   5.4644   5.5152   5.7114   7.0544   8.2268   9.5696
    10.4411  13.8513

          k = 0.0000 0.1183-0.2832 (  3906 PWs)   bands (ev):

   -72.8814 -42.3073 -41.5286 -40.9199 -11.5489 -10.7938 -10.4582 -10.0446
     1.2192   1.7841   2.2313   2.9922   3.1124   3.8289   3.8717   4.4041
     4.5399   4.9425   5.4606   5.5653   5.8050   7.0865   8.1495   9.8885
    10.4850  14.0944

          k =-0.0000-0.2391 0.1917 (  3908 PWs)   bands (ev):

   -72.8814 -42.3072 -41.5286 -40.9199 -11.6619 -10.6855 -10.4779  -9.9923
     1.0221   1.8376   2.4015   2.8249   3.1528   3.6262   3.9409   4.2169
     4.6065   5.0282   5.5040   5.6038   6.1063   7.1480   8.0213  10.2233
    10.4836  13.8318

          k =-0.0000-0.2379 0.3791 (  3906 PWs)   bands (ev):

   -72.8814 -42.3073 -41.5286 -40.9199 -11.5974 -10.8748 -10.3451 -10.0030
     1.3336   1.7585   1.9796   2.9204   3.0743   3.7928   3.9129   4.4066
     4.7825   4.9410   5.4631   5.5548   5.8358   7.1216   8.1579   9.8851
    10.4392  13.4357

          k = 0.0000-0.2414-0.1829 (  3902 PWs)   bands (ev):

   -72.8814 -42.3074 -41.5286 -40.9199 -11.4234 -11.1716 -10.2140 -10.0105
     1.1753   1.7628   2.3241   3.0092   3.0564   3.7056   3.9018   4.1367
     4.5710   5.2324   5.5069   5.5919   5.7752   7.0885   8.1975   9.5397
    10.3951  13.7468

          k = 0.2491-0.0618-0.1387 (  3913 PWs)   bands (ev):

   -72.8786 -42.3044 -41.5230 -40.9584 -11.3384 -10.5934 -10.1862 -10.0129
     1.3857   1.6604   2.1357   2.4212   2.8174   3.0422   3.8278   4.0104
     4.2925   5.0248   5.3427   5.5245   6.1502   6.9776   8.0341   9.7250
    10.1326  13.9480

          k = 0.2491-0.0606 0.0487 (  3893 PWs)   bands (ev):

   -72.8786 -42.3043 -41.5230 -40.9584 -11.4388 -10.4725 -10.2252  -9.9780
     1.4074   1.8098   2.0456   2.4442   2.8487   2.8953   3.7088   3.9751
     4.3149   5.0220   5.4041   5.6001   6.0788   7.0749   7.9621   9.7868
    10.1079  13.6079

          k = 0.2492-0.0642-0.5133 (  3920 PWs)   bands (ev):

   -72.8786 -42.3044 -41.5231 -40.9584 -11.2494 -10.5545 -10.3248 -10.0271
     1.3139   1.6639   2.1993   2.5734   2.7109   3.0174   3.9802   4.0882
     4.4204   4.9794   5.0688   5.4985   6.1945   6.9761   8.0293   9.6701
    10.0529  14.7158

          k = 0.2491-0.0630-0.3260 (  3917 PWs)   bands (ev):

   -72.8787 -42.3044 -41.5231 -40.9583 -11.0668 -10.7629 -10.2773 -10.0660
     1.3116   1.6337   2.1092   2.4566   2.7768   3.3439   3.9117   4.2005
     4.3800   4.9151   5.0361   5.4859   6.2091   6.8955   8.0967   9.8282
     9.8857  15.0960

          k = 0.2491 0.0577-0.2345 (  3918 PWs)   bands (ev):

   -72.8786 -42.3044 -41.5231 -40.9584 -11.2522 -10.5535 -10.3221 -10.0275
     1.3127   1.6646   2.2004   2.5686   2.7105   3.0157   3.9774   4.0864
     4.4246   4.9898   5.0629   5.5005   6.1953   6.9775   8.0288   9.6691
    10.0524  14.7072

          k = 0.2491 0.0589-0.0472 (  3898 PWs)   bands (ev):

   -72.8786 -42.3043 -41.5230 -40.9584 -11.4406 -10.4724 -10.2230  -9.9780
     1.4073   1.8086   2.0465   2.4423   2.8351   2.9081   3.7074   3.9713
     4.3211   5.0143   5.4170   5.5998   6.0749   7.0756   7.9621   9.7862
    10.1088  13.6032

          k = 0.2492 0.0554-0.6092 (  3911 PWs)   bands (ev):

   -72.8786 -42.3044 -41.5230 -40.9584 -11.3378 -10.5920 -10.1878 -10.0135
     1.3836   1.6636   2.1345   2.4190   2.8278   3.0355   3.8279   4.0111
     4.2968   5.0201   5.3377   5.5258   6.1530   6.9786   8.0332   9.7224
    10.1324  13.9569

          k = 0.2492 0.0565-0.4219 (  3915 PWs)   bands (ev):

   -72.8787 -42.3044 -41.5231 -40.9583 -11.0665 -10.7608 -10.2789 -10.0669
     1.3113   1.6332   2.1074   2.4562   2.7780   3.3491   3.9162   4.1973
     4.3766   4.9109   5.0396   5.4871   6.2105   6.8965   8.0946   9.8268
     9.8836  15.1012

          k = 0.2491-0.3009 0.0531 (  3925 PWs)   bands (ev):

   -72.8787 -42.3044 -41.5231 -40.9584 -11.1813 -10.6492 -10.3223 -10.0143
     1.4693   1.8119   2.1185   2.4574   2.7201   3.1274   3.6911   4.0215
     4.4031   4.9583   5.1287   5.5569   6.1794   6.9877   8.0480   9.6707
    10.1346  14.7114

          k = 0.2491-0.2997 0.2404 (  3915 PWs)   bands (ev):

   -72.8786 -42.3043 -41.5231 -40.9584 -11.3149 -10.4878 -10.3681  -9.9780
     1.3899   1.9422   2.2679   2.5206   2.6863   2.8963   3.5359   3.9344
     4.5167   4.9790   5.1373   5.6164   6.1442   7.0978   7.9541   9.7223
    10.0941  14.4938

          k = 0.2491-0.3032-0.3216 (  3914 PWs)   bands (ev):

   -72.8786 -42.3044 -41.5230 -40.9584 -11.2859 -10.6558 -10.1987 -10.0017
     1.6047   1.7829   1.9091   2.5491   2.8239   3.0748   3.5769   3.8818
     4.1775   5.0877   5.3877   5.5921   6.1284   6.9842   8.0496   9.7392
    10.2162  13.8791

          k = 0.2491-0.3021-0.1342 (  3920 PWs)   bands (ev):

   -72.8786 -42.3044 -41.5230 -40.9584 -11.0649 -10.8865 -10.1741 -10.0335
     1.5652   1.7007   1.9410   2.5617   2.8126   3.0985   3.5443   4.1767
     4.2943   4.8823   5.3573   5.5425   6.1809   6.8886   8.1120   9.9203
     9.9802  14.6251

          k = 0.2491-0.1813-0.0428 (  3913 PWs)   bands (ev):

   -72.8786 -42.3044 -41.5230 -40.9584 -11.2836 -10.6567 -10.2008 -10.0016
     1.6034   1.7846   1.9067   2.5577   2.8250   3.0656   3.5782   3.8855
     4.1791   5.0924   5.3741   5.5975   6.1301   6.9835   8.0483   9.7411
    10.2132  13.8797

          k = 0.2491-0.1802 0.1445 (  3921 PWs)   bands (ev):

   -72.8786 -42.3043 -41.5231 -40.9584 -11.3125 -10.4884 -10.3705  -9.9780
     1.3885   1.9416   2.2717   2.5257   2.6904   2.8904   3.5340   3.9360
     4.5147   4.9738   5.1408   5.6158   6.1447   7.0969   7.9542   9.7218
    10.0946  14.5037

          k = 0.2492-0.1837-0.4174 (  3925 PWs)   bands (ev):

   -72.8787 -42.3044 -41.5231 -40.9584 -11.1816 -10.6513 -10.3204 -10.0134
     1.4699   1.8152   2.1168   2.4613   2.7122   3.1328   3.6829   4.0242
     4.4025   4.9628   5.1283   5.5537   6.1763   6.9866   8.0498   9.6725
    10.1381  14.7016

          k = 0.2491-0.1825-0.2301 (  3914 PWs)   bands (ev):

   -72.8786 -42.3044 -41.5230 -40.9583 -11.0647 -10.8886 -10.1725 -10.0331
     1.5665   1.6985   1.9444   2.5644   2.8088   3.0983   3.5382   4.1803
     4.2933   4.8798   5.3658   5.5386   6.1787   6.8874   8.1138   9.9205
     9.9838  14.6227

          k =-0.4983 0.1236 0.2773 (  3922 PWs)   bands (ev):

   -72.8763 -42.3014 -41.5175 -40.9965 -10.7061 -10.4038 -10.2340 -10.0978
     0.6972   1.2267   1.8513   2.2677   2.5936   3.5363   3.8737   4.2794
     4.5315   4.8474   4.8489   5.3128   5.9801   6.8176   7.9347  10.0154
    10.1337  15.3332

          k =-0.4983 0.1248 0.4646 (  3918 PWs)   bands (ev):

   -72.8763 -42.3014 -41.5175 -40.9965 -10.7495 -10.4208 -10.2204 -10.0573
     0.9072   1.2663   1.9626   2.3702   2.5979   3.4517   3.6792   4.2304
     4.4020   4.5764   4.9421   5.1710   5.9768   6.9894   7.9167   9.8293
    10.0886  15.8520

          k =-0.4983 0.1212-0.0973 (  3936 PWs)   bands (ev):

   -72.8763 -42.3014 -41.5175 -40.9965 -10.7872 -10.4395 -10.2051 -10.0226
     1.0985   1.3733   2.1990   2.4287   2.6696   3.0796   3.4207   4.1824
     4.3375   4.5528   4.8831   5.0718   5.9684   7.1199   7.9034   9.6113
    10.1041  16.0305

          k =-0.4983 0.2431 0.1814 (  3934 PWs)   bands (ev):

   -72.8763 -42.3014 -41.5175 -40.9965 -10.7063 -10.4033 -10.2339 -10.0982
     0.7568   1.1369   1.8522   2.2793   2.5563   3.7099   3.8396   4.2239
     4.5175   4.8164   4.8721   5.3060   5.9794   6.8213   7.9271  10.0356
    10.1029  15.6811

          k =-0.4983 0.2443 0.3688 (  3923 PWs)   bands (ev):

   -72.8763 -42.3014 -41.5175 -40.9965 -10.7506 -10.4242 -10.2163 -10.0567
     0.9006   1.2925   1.9661   2.2247   2.7952   3.3554   3.6852   4.2097
     4.4143   4.5776   4.9642   5.1713   5.9749   6.9951   7.9162   9.8123
    10.1056  15.6406

          k =-0.4982 0.2408-0.1932 (  3915 PWs)   bands (ev):

   -72.8763 -42.3014 -41.5175 -40.9965 -10.7895 -10.4366 -10.2089 -10.0191
     1.1161   1.3439   2.1524   2.5229   2.7019   3.0043   3.4679   4.1509
     4.2883   4.5451   4.8671   5.1288   5.9719   7.1271   7.9030   9.6193
    10.0943  16.0014

          k =-0.4983 0.2420-0.0059 (  3927 PWs)   bands (ev):

   -72.8763 -42.3014 -41.5175 -40.9965 -10.7494 -10.4215 -10.2192 -10.0579
     0.8990   1.2931   1.9599   2.2248   2.7936   3.3585   3.6856   4.2193
     4.4212   4.5742   4.9645   5.1676   5.9758   6.9926   7.9139   9.8153
    10.1050  15.6278

          k =-0.4983-0.1155 0.4691 (  3928 PWs)   bands (ev):

   -72.8764 -42.3014 -41.5175 -40.9965 -10.7066 -10.4015 -10.2362 -10.0972
     0.7005   1.2258   1.8471   2.2576   2.5811   3.5384   3.8898   4.2915
     4.5397   4.8396   4.8537   5.3096   5.9809   6.8168   7.9296  10.0112
    10.1348  15.3228

          k =-0.4983-0.1143 0.6564 (  3915 PWs)   bands (ev):

   -72.8763 -42.3014 -41.5175 -40.9965 -10.7511 -10.4215 -10.2195 -10.0555
     0.9130   1.2640   1.9596   2.3656   2.5887   3.4527   3.6815   4.2392
     4.3989   4.5824   4.9421   5.1718   5.9767   6.9911   7.9145   9.8252
    10.0892  15.8685

          k =-0.4983-0.1178 0.0944 (  3928 PWs)   bands (ev):

   -72.8763 -42.3014 -41.5175 -40.9965 -10.7898 -10.4425 -10.2017 -10.0199
     1.1085   1.3710   2.1950   2.4233   2.6627   3.0788   3.4246   4.1780
     4.3380   4.5542   4.8897   5.0726   5.9674   7.1241   7.9030   9.6027
    10.1054  16.0375

     the Fermi energy is     7.0457 ev

!    total energy              =    -520.61932902 Ry
     total all-electron energy =     -3720.872587 Ry
     estimated scf accuracy    <       0.00000002 Ry
     smearing contrib. (-TS)   =      -0.00518265 Ry
     internal energy E=F+TS    =    -520.61414637 Ry

     The total energy is F=E-TS. E is the sum of the following terms:
     one-electron contribution =    -240.77368024 Ry
     hartree contribution      =     145.48048895 Ry
     xc contribution           =     -61.25907208 Ry
     ewald contribution        =    -185.56449509 Ry
     Hubbard energy            =       0.24546896 Ry
     one-center paw contrib.   =    -178.74285688 Ry

     convergence has been achieved in  16 iterations
     force_hub    :     56.52s CPU      8.46s WALL (       4 calls)
     dndtau       :     49.42s CPU      7.46s WALL (    3024 calls)
     dprojdtau    :      7.30s CPU      1.15s WALL (    3024 calls)
     calc_doverla :     26.11s CPU      3.97s WALL (    3024 calls)
     matel_dSdtau :     36.94s CPU      5.35s WALL (    6048 calls)

     Forces acting on atoms (cartesian axes, Ry/au):

     atom    1 type  1   force =     0.00151619   -0.00532133   -0.00669970
     atom    2 type  1   force =    -0.00037987    0.00593036   -0.00733904
     atom    3 type  3   force =    -0.00010507    0.00747715    0.00403825
     atom    4 type  2   force =    -0.00075026   -0.00590548    0.00399720
     atom    5 type  2   force =     0.00044523    0.00233914   -0.00025102
     atom    6 type  2   force =    -0.00000131   -0.00736438   -0.00097949
     atom    7 type  2   force =    -0.00072491    0.00284453    0.00723381

     Total force =     0.020253     Total SCF correction =     0.000064


     Computing stress (Cartesian axis) and pressure

     stres_hub    :    160.25s CPU     21.32s WALL (       4 calls)
     dprojdepsilo :    129.77s CPU     17.32s WALL (    1296 calls)
     dprojdeps1   :     14.22s CPU      1.95s WALL (    1296 calls)
     dprojdeps2   :     71.31s CPU      9.63s WALL (    1296 calls)
     dprojdeps3   :     44.16s CPU      5.74s WALL (    1296 calls)
          total   stress  (Ry/bohr**3)                   (kbar)     P=        4.55
  -0.00000976  -0.00000414   0.00000314           -1.44       -0.61        0.46
  -0.00000414   0.00007622   0.00004165           -0.61       11.21        6.13
   0.00000314   0.00004165   0.00002624            0.46        6.13        3.86

     Energy error            =      8.9E-04 Ry
     Gradient error          =      7.5E-03 Ry/Bohr
     Cell gradient error     =      1.1E+01 kbar

     number of scf cycles    =   4
     number of bfgs steps    =   3

     enthalpy           old  =    -520.6184389053 Ry
     enthalpy           new  =    -520.6193290228 Ry

     CASE: enthalpy          _new < enthalpy          _old

     new trust radius        =       0.0435142383 bohr
     new conv_thr            =       0.0000000748 Ry

     new unit-cell volume =    487.72928 a.u.^3 (    72.27402 Ang^3 )
     density =      3.84942 g/cm^3

CELL_PARAMETERS (angstrom)
   2.972711218  -0.000773720   0.000762266
   1.506011514   6.166723288  -0.032647912
   2.972112552   3.159652869   3.926113080

ATOMIC_POSITIONS (angstrom)
Mg               3.4511350091        4.7910501692        1.4632674201
Mg               0.4804483565        1.1005834066        0.3391533473
Mn               4.9401693091        2.3236195618        2.5250318431
O                3.4737264211        6.8819433055        1.7716329367
O                4.9387437674        4.2977481386        2.8636138609
O                3.4547176923        2.8016198010        1.3551564389
O                4.9582113241        8.3610055550        3.8476265562



     Writing config-only to output data dir .\out\\qgan.save\ :
     XML data file
     NEW-OLD atomic charge density approx. for the potential
     New effective cutoffs (rho, wfc):  497.13   62.24

     Check: negative core charge=   -0.000002

     Atomic wfc used for Hubbard projectors are orthogonalized


     total cpu time spent up to now is      239.8 secs

     Self-consistent Calculation

     iteration #  1     ecut=    60.00 Ry     beta= 0.70
     Davidson diagonalization with overlap
     ethr =  1.00E-06,  avg # of iterations = 12.1

     =================== HUBBARD OCCUPATIONS ===================
     ------------------------ ATOM    3 ------------------------
     Tr[ns(  3)] =   5.24405
     eigenvalues:
       0.220  0.312  0.400  0.715  0.975
     eigenvectors (columns):
      -0.540 -0.001  0.202  0.002 -0.817
       0.002 -0.962 -0.003  0.272 -0.001
       0.800  0.000  0.424 -0.002 -0.424
      -0.261 -0.003  0.883  0.002  0.390
      -0.003 -0.272  0.001 -0.962 -0.000
     occupation matrix ns (before diag.):
       0.732  0.001  0.277 -0.209 -0.001
       0.001  0.342 -0.000 -0.000 -0.105
       0.277 -0.000  0.388 -0.057  0.001
      -0.209 -0.000 -0.057  0.475 -0.001
      -0.001 -0.105  0.001 -0.001  0.685

     Number of occupied Hubbard levels =    5.2440

     total cpu time spent up to now is      246.2 secs

     total energy              =    -520.61965389 Ry
     estimated scf accuracy    <       0.00103151 Ry

     iteration #  2     ecut=    60.00 Ry     beta= 0.70
     Davidson diagonalization with overlap
     ethr =  2.40E-06,  avg # of iterations =  4.4

     total cpu time spent up to now is      248.9 secs

     total energy              =    -520.61895631 Ry
     estimated scf accuracy    <       0.00906324 Ry

     iteration #  3     ecut=    60.00 Ry     beta= 0.70
     Davidson diagonalization with overlap
     ethr =  2.40E-06,  avg # of iterations =  3.4

     total cpu time spent up to now is      251.4 secs

     total energy              =    -520.61987847 Ry
     estimated scf accuracy    <       0.00117576 Ry

     iteration #  4     ecut=    60.00 Ry     beta= 0.70
     Davidson diagonalization with overlap
     ethr =  2.40E-06,  avg # of iterations =  2.0

     total cpu time spent up to now is      253.6 secs

     total energy              =    -520.62008505 Ry
     estimated scf accuracy    <       0.00012352 Ry

     iteration #  5     ecut=    60.00 Ry     beta= 0.70
     Davidson diagonalization with overlap
     ethr =  2.87E-07,  avg # of iterations =  5.1

     total cpu time spent up to now is      256.5 secs

     total energy              =    -520.62016756 Ry
     estimated scf accuracy    <       0.00011406 Ry

     iteration #  6     ecut=    60.00 Ry     beta= 0.70
     Davidson diagonalization with overlap
     ethr =  2.65E-07,  avg # of iterations =  1.1

     total cpu time spent up to now is      258.6 secs

     total energy              =    -520.62016762 Ry
     estimated scf accuracy    <       0.00004709 Ry

     iteration #  7     ecut=    60.00 Ry     beta= 0.70
     Davidson diagonalization with overlap
     ethr =  1.10E-07,  avg # of iterations =  1.9

     total cpu time spent up to now is      260.8 secs

     total energy              =    -520.62016683 Ry
     estimated scf accuracy    <       0.00001552 Ry

     iteration #  8     ecut=    60.00 Ry     beta= 0.70
     Davidson diagonalization with overlap
     ethr =  3.61E-08,  avg # of iterations =  2.3

     total cpu time spent up to now is      263.2 secs

     total energy              =    -520.62016998 Ry
     estimated scf accuracy    <       0.00000095 Ry

     iteration #  9     ecut=    60.00 Ry     beta= 0.70
     Davidson diagonalization with overlap
     c_bands:  4 eigenvalues not converged
     c_bands:  1 eigenvalues not converged
     c_bands:  1 eigenvalues not converged
     c_bands:  3 eigenvalues not converged
     c_bands:  3 eigenvalues not converged
     ethr =  2.21E-09,  avg # of iterations = 16.2

     total cpu time spent up to now is      269.4 secs

     total energy              =    -520.62017390 Ry
     estimated scf accuracy    <       0.00000150 Ry

     iteration # 10     ecut=    60.00 Ry     beta= 0.70
     Davidson diagonalization with overlap
     ethr =  2.21E-09,  avg # of iterations =  1.5

     total cpu time spent up to now is      271.6 secs

     total energy              =    -520.62017375 Ry
     estimated scf accuracy    <       0.00000079 Ry

     iteration # 11     ecut=    60.00 Ry     beta= 0.70
     Davidson diagonalization with overlap
     ethr =  1.83E-09,  avg # of iterations =  5.7

     total cpu time spent up to now is      274.6 secs

     total energy              =    -520.62017425 Ry
     estimated scf accuracy    <       0.00000037 Ry

     iteration # 12     ecut=    60.00 Ry     beta= 0.70
     Davidson diagonalization with overlap
     ethr =  8.68E-10,  avg # of iterations =  2.1

     total cpu time spent up to now is      276.9 secs

     total energy              =    -520.62017387 Ry
     estimated scf accuracy    <       0.00000021 Ry

     iteration # 13     ecut=    60.00 Ry     beta= 0.70
     Davidson diagonalization with overlap
     ethr =  4.78E-10,  avg # of iterations =  9.2

     total cpu time spent up to now is      280.8 secs

     total energy              =    -520.62017423 Ry
     estimated scf accuracy    <       0.00000086 Ry

     iteration # 14     ecut=    60.00 Ry     beta= 0.70
     Davidson diagonalization with overlap
     ethr =  4.78E-10,  avg # of iterations =  5.4

     total cpu time spent up to now is      283.8 secs

     End of self-consistent calculation

     =================== HUBBARD OCCUPATIONS ===================
     ------------------------ ATOM    3 ------------------------
     Tr[ns(  3)] =   5.23465
     eigenvalues:
       0.218  0.313  0.399  0.713  0.974
     eigenvectors (columns):
      -0.535 -0.000  0.202  0.002 -0.821
       0.002 -0.963 -0.003  0.268 -0.001
       0.803  0.000  0.423 -0.002 -0.419
      -0.263 -0.003  0.883  0.001  0.388
      -0.003 -0.268 -0.000 -0.963 -0.001
     occupation matrix ns (before diag.):
       0.735  0.001  0.276 -0.209 -0.001
       0.001  0.341 -0.000 -0.000 -0.103
       0.276 -0.000  0.384 -0.056  0.001
      -0.209 -0.000 -0.056  0.473 -0.001
      -0.001 -0.103  0.001 -0.001  0.684

     Number of occupied Hubbard levels =    5.2346

          k = 0.0000 0.0000 0.0000 (  3893 PWs)   bands (ev):

   -72.8985 -42.3206 -41.5482 -40.9375 -11.8862 -10.5640 -10.2787 -10.0400
     0.8125   1.5056   2.2243   2.6735   3.0656   3.8795   4.1678   4.3299
     4.6350   5.4250   5.5983   5.6518   6.0726   7.0984   8.0023  10.0616
    10.3461  11.7212

          k =-0.0000 0.0010 0.1876 (  3895 PWs)   bands (ev):

   -72.8984 -42.3206 -41.5482 -40.9375 -11.6883 -10.7148 -10.3564 -10.0771
     1.0027   1.7962   1.9912   3.0668   3.0701   3.8429   4.0406   4.4433
     4.6493   4.9553   5.5509   5.5706   5.7645   7.0563   8.1024   9.7740
    10.3907  12.8337

          k = 0.0001-0.0020-0.3752 (  3894 PWs)   bands (ev):

   -72.8983 -42.3207 -41.5483 -40.9375 -11.3508 -10.9946 -10.4320 -10.1286
     1.2430   1.8425   2.5391   3.0172   3.0623   3.4930   3.8403   4.5338
     4.5640   4.8436   5.4727   5.4848   5.6187   7.0133   8.1780   9.5426
    10.4358  14.4349

          k = 0.0001 0.1194-0.0961 (  3889 PWs)   bands (ev):

   -72.8984 -42.3206 -41.5482 -40.9375 -11.7826 -10.5922 -10.4095 -10.0260
     1.0337   1.5220   2.1896   2.7838   3.1023   3.9019   4.1359   4.2739
     4.7232   5.0122   5.4844   5.6034   6.0712   7.1209   7.9974  10.1229
    10.3898  12.5107

          k = 0.0000 0.1204 0.0915 (  3904 PWs)   bands (ev):

   -72.8985 -42.3207 -41.5482 -40.9375 -11.7306 -10.7958 -10.2541 -10.0303
     0.9500   1.7974   2.0889   2.8916   3.0314   3.8157   3.8811   4.4472
     4.6631   5.2226   5.5574   5.5788   5.8418   7.0929   8.0992   9.7705
    10.3461  12.4862

          k = 0.0002 0.1174-0.4713 (  3922 PWs)   bands (ev):

   -72.8984 -42.3207 -41.5482 -40.9375 -11.3957 -11.0777 -10.3341 -10.0716
     1.2984   1.6468   2.4472   3.0295   3.1523   3.5111   3.8665   4.3563
     4.5519   5.0959   5.4388   5.4677   5.6715   7.0491   8.1993   9.5368
    10.3913  13.8311

          k = 0.0001 0.1184-0.2837 (  3906 PWs)   bands (ev):

   -72.8984 -42.3206 -41.5483 -40.9375 -11.5376 -10.7921 -10.4833 -10.0658
     1.2268   1.7880   2.2314   2.9764   3.1014   3.8255   3.8622   4.3951
     4.5247   4.9214   5.4376   5.5176   5.7674   7.0817   8.1212   9.8519
    10.4340  14.0711

          k =-0.0001-0.2388 0.1923 (  3908 PWs)   bands (ev):

   -72.8984 -42.3206 -41.5483 -40.9375 -11.6511 -10.6860 -10.4989 -10.0148
     1.0194   1.8555   2.4010   2.8186   3.1419   3.6088   3.9287   4.2119
     4.5959   5.0038   5.4774   5.5541   6.0724   7.1437   7.9902  10.1884
    10.4329  13.8106

          k =-0.0002-0.2378 0.3799 (  3906 PWs)   bands (ev):

   -72.8984 -42.3207 -41.5482 -40.9375 -11.5928 -10.8649 -10.3735 -10.0223
     1.3342   1.7563   1.9940   2.9119   3.0634   3.7924   3.9045   4.3978
     4.7532   4.9193   5.4359   5.5051   5.8013   7.1167   8.1290   9.8531
    10.3897  13.4078

          k =-0.0000-0.2408-0.1829 (  3902 PWs)   bands (ev):

   -72.8985 -42.3207 -41.5482 -40.9375 -11.4330 -11.1505 -10.2428 -10.0259
     1.1642   1.7940   2.3234   2.9986   3.0419   3.7006   3.8947   4.1186
     4.5607   5.2079   5.4571   5.5684   5.7283   7.0832   8.1684   9.5140
    10.3466  13.7338

          k = 0.2488-0.0615-0.1389 (  3913 PWs)   bands (ev):

   -72.8957 -42.3178 -41.5428 -40.9752 -11.3327 -10.5901 -10.2081 -10.0378
     1.3908   1.6591   2.1330   2.4238   2.8037   3.0181   3.8128   4.0058
     4.2742   5.0194   5.3087   5.5003   6.1151   6.9615   8.0111   9.6851
    10.0933  13.9263

          k = 0.2488-0.0605 0.0487 (  3893 PWs)   bands (ev):

   -72.8957 -42.3177 -41.5428 -40.9752 -11.4332 -10.4656 -10.2490 -10.0050
     1.4108   1.8141   2.0376   2.4488   2.8264   2.8849   3.7014   3.9516
     4.3049   5.0105   5.3818   5.5695   6.0437   7.0555   7.9408   9.7487
    10.0668  13.5816

          k = 0.2489-0.0635-0.5141 (  3920 PWs)   bands (ev):

   -72.8957 -42.3178 -41.5428 -40.9752 -11.2379 -10.5574 -10.3459 -10.0526
     1.3138   1.6674   2.2026   2.5657   2.6859   3.0069   3.9701   4.0893
     4.4091   4.9423   5.0554   5.4727   6.1556   6.9585   8.0068   9.6335
    10.0166  14.6958

          k = 0.2489-0.0625-0.3265 (  3917 PWs)   bands (ev):

   -72.8957 -42.3178 -41.5428 -40.9752 -11.0472 -10.7746 -10.2998 -10.0892
     1.3166   1.6341   2.1066   2.4493   2.7420   3.3513   3.9016   4.1923
     4.3751   4.8861   5.0093   5.4608   6.1709   6.8795   8.0738   9.7923
     9.8492  15.0887

          k = 0.2489 0.0579-0.2350 (  3918 PWs)   bands (ev):

   -72.8957 -42.3178 -41.5428 -40.9752 -11.2404 -10.5563 -10.3436 -10.0529
     1.3126   1.6686   2.2038   2.5613   2.6863   3.0047   3.9678   4.0868
     4.4124   4.9505   5.0513   5.4748   6.1561   6.9602   8.0059   9.6328
    10.0165  14.6885

          k = 0.2488 0.0589-0.0474 (  3898 PWs)   bands (ev):

   -72.8957 -42.3177 -41.5428 -40.9752 -11.4348 -10.4656 -10.2470 -10.0050
     1.4103   1.8132   2.0383   2.4473   2.8184   2.8928   3.7002   3.9485
     4.3093   5.0040   5.3923   5.5698   6.0404   7.0561   7.9408   9.7483
    10.0676  13.5775

          k = 0.2490 0.0559-0.6102 (  3911 PWs)   bands (ev):

   -72.8957 -42.3178 -41.5428 -40.9752 -11.3321 -10.5890 -10.2094 -10.0385
     1.3890   1.6615   2.1320   2.4213   2.8125   3.0131   3.8129   4.0073
     4.2776   5.0147   5.3044   5.5017   6.1178   6.9622   8.0108   9.6828
    10.0927  13.9337

          k = 0.2489 0.0569-0.4226 (  3915 PWs)   bands (ev):

   -72.8957 -42.3178 -41.5428 -40.9752 -11.0468 -10.7730 -10.3010 -10.0900
     1.3165   1.6335   2.1051   2.4491   2.7427   3.3554   3.9061   4.1898
     4.3713   4.8825   5.0126   5.4620   6.1722   6.8805   8.0721   9.7910
     9.8474  15.0928

          k = 0.2487-0.3003 0.0534 (  3925 PWs)   bands (ev):

   -72.8957 -42.3178 -41.5428 -40.9752 -11.1688 -10.6526 -10.3453 -10.0381
     1.4638   1.8221   2.1187   2.4551   2.6925   3.1197   3.6865   4.0126
     4.3907   4.9174   5.1162   5.5315   6.1422   6.9707   8.0239   9.6383
    10.0987  14.6979

          k = 0.2486-0.2993 0.2410 (  3915 PWs)   bands (ev):

   -72.8957 -42.3177 -41.5428 -40.9752 -11.3043 -10.4823 -10.3967 -10.0037
     1.3825   1.9605   2.2654   2.5084   2.6708   2.8903   3.5331   3.9140
     4.5036   4.9349   5.1361   5.5892   6.1062   7.0789   7.9308   9.6884
    10.0580  14.4759

          k = 0.2488-0.3023-0.3218 (  3914 PWs)   bands (ev):

   -72.8957 -42.3178 -41.5428 -40.9752 -11.2810 -10.6510 -10.2229 -10.0251
     1.6015   1.7796   1.9177   2.5584   2.8020   3.0591   3.5590   3.8760
     4.1543   5.0750   5.3604   5.5658   6.0962   6.9679   8.0257   9.7033
    10.1760  13.8579

          k = 0.2487-0.3013-0.1342 (  3920 PWs)   bands (ev):

   -72.8957 -42.3178 -41.5428 -40.9752 -11.0590 -10.8848 -10.1987 -10.0540
     1.5619   1.6981   1.9557   2.5613   2.7840   3.0907   3.5217   4.1654
     4.2824   4.8679   5.3262   5.5222   6.1465   6.8745   8.0873   9.8864
     9.9396  14.6176

          k = 0.2487-0.1809-0.0427 (  3913 PWs)   bands (ev):

   -72.8957 -42.3178 -41.5428 -40.9752 -11.2789 -10.6518 -10.2248 -10.0248
     1.6013   1.7807   1.9156   2.5661   2.8022   3.0506   3.5599   3.8783
     4.1564   5.0795   5.3494   5.5701   6.0974   6.9674   8.0243   9.7049
    10.1740  13.8584

          k = 0.2487-0.1799 0.1449 (  3921 PWs)   bands (ev):

   -72.8957 -42.3177 -41.5428 -40.9752 -11.3022 -10.4829 -10.3987 -10.0036
     1.3816   1.9597   2.2691   2.5128   2.6723   2.8862   3.5315   3.9154
     4.5024   4.9306   5.1392   5.5885   6.1066   7.0781   7.9309   9.6879
    10.0584  14.4843

          k = 0.2488-0.1829-0.4179 (  3925 PWs)   bands (ev):

   -72.8957 -42.3178 -41.5428 -40.9752 -11.1692 -10.6543 -10.3438 -10.0373
     1.4640   1.8245   2.1171   2.4587   2.6863   3.1247   3.6798   4.0156
     4.3898   4.9212   5.1154   5.5285   6.1398   6.9693   8.0257   9.6397
    10.1011  14.6899

          k = 0.2488-0.1819-0.2303 (  3914 PWs)   bands (ev):

   -72.8957 -42.3178 -41.5428 -40.9752 -11.0591 -10.8863 -10.1973 -10.0535
     1.5630   1.6961   1.9586   2.5634   2.7818   3.0903   3.5162   4.1684
     4.2815   4.8657   5.3331   5.5191   6.1446   6.8733   8.0888   9.8867
     9.9424  14.6160

          k =-0.4976 0.1230 0.2777 (  3922 PWs)   bands (ev):

   -72.8935 -42.3149 -41.5374 -41.0126 -10.6696 -10.4372 -10.2492 -10.1287
     0.6990   1.2122   1.8468   2.2686   2.5879   3.5181   3.8763   4.2562
     4.5205   4.8106   4.8237   5.3155   5.9542   6.7893   7.9145   9.9807
    10.0954  15.3137

          k =-0.4977 0.1240 0.4653 (  3918 PWs)   bands (ev):

   -72.8934 -42.3149 -41.5374 -41.0126 -10.7167 -10.4521 -10.2368 -10.0855
     0.9094   1.2448   1.9678   2.3678   2.5960   3.4378   3.6757   4.2138
     4.3827   4.5443   4.9226   5.1620   5.9505   6.9626   7.8983   9.7916
    10.0532  15.8424

          k =-0.4975 0.1210-0.0975 (  3936 PWs)   bands (ev):

   -72.8934 -42.3148 -41.5374 -41.0126 -10.7563 -10.4702 -10.2218 -10.0493
     1.0909   1.3590   2.2109   2.4280   2.6620   3.0812   3.4067   4.1577
     4.3257   4.5102   4.8820   5.0506   5.9416   7.0939   7.8867   9.5739
    10.0673  16.0571

          k =-0.4976 0.2424 0.1816 (  3934 PWs)   bands (ev):

   -72.8935 -42.3149 -41.5374 -41.0126 -10.6697 -10.4369 -10.2487 -10.1293
     0.7614   1.1188   1.8513   2.2700   2.5613   3.6822   3.8472   4.1966
     4.5124   4.7860   4.8400   5.3082   5.9534   6.7928   7.9074   9.9987
    10.0668  15.6501

          k =-0.4976 0.2434 0.3692 (  3923 PWs)   bands (ev):

   -72.8934 -42.3149 -41.5374 -41.0126 -10.7175 -10.4556 -10.2327 -10.0852
     0.8990   1.2762   1.9681   2.2230   2.7962   3.3450   3.6768   4.1922
     4.3969   4.5437   4.9432   5.1639   5.9487   6.9684   7.8979   9.7764
    10.0688  15.6272

          k =-0.4975 0.2404-0.1936 (  3915 PWs)   bands (ev):

   -72.8934 -42.3148 -41.5374 -41.0126 -10.7590 -10.4663 -10.2265 -10.0455
     1.1084   1.3282   2.1683   2.5211   2.6962   2.9964   3.4635   4.1341
     4.2636   4.5032   4.8655   5.1088   5.9451   7.1008   7.8865   9.5820
    10.0584  16.0142

          k =-0.4975 0.2414-0.0060 (  3927 PWs)   bands (ev):

   -72.8935 -42.3149 -41.5374 -41.0126 -10.7163 -10.4534 -10.2349 -10.0864
     0.8976   1.2767   1.9628   2.2226   2.7950   3.3474   3.6777   4.1997
     4.4033   4.5410   4.9441   5.1604   5.9494   6.9663   7.8960   9.7788
    10.0681  15.6167

          k =-0.4977-0.1158 0.4700 (  3928 PWs)   bands (ev):

   -72.8935 -42.3149 -41.5374 -41.0126 -10.6700 -10.4353 -10.2506 -10.1284
     0.7013   1.2117   1.8429   2.2599   2.5779   3.5198   3.8895   4.2667
     4.5283   4.8065   4.8251   5.3126   5.9548   6.7888   7.9104   9.9776
    10.0959  15.3046

          k =-0.4978-0.1148 0.6576 (  3915 PWs)   bands (ev):

   -72.8934 -42.3149 -41.5374 -41.0126 -10.7182 -10.4526 -10.2361 -10.0838
     0.9137   1.2431   1.9658   2.3642   2.5882   3.4381   3.6777   4.2204
     4.3806   4.5497   4.9230   5.1622   5.9504   6.9643   7.8965   9.7883
    10.0536  15.8565

          k =-0.4976-0.1178 0.0948 (  3928 PWs)   bands (ev):

   -72.8934 -42.3148 -41.5374 -41.0126 -10.7587 -10.4727 -10.2190 -10.0468
     1.0984   1.3580   2.2084   2.4234   2.6567   3.0803   3.4091   4.1543
     4.3258   4.5115   4.8875   5.0506   5.9407   7.0976   7.8863   9.5671
    10.0683  16.0606

     the Fermi energy is     7.0291 ev

!    total energy              =    -520.62017483 Ry
     total all-electron energy =     -3720.873433 Ry
     estimated scf accuracy    <       0.00000004 Ry
     smearing contrib. (-TS)   =      -0.00510596 Ry
     internal energy E=F+TS    =    -520.61506887 Ry

     The total energy is F=E-TS. E is the sum of the following terms:
     one-electron contribution =    -240.25483560 Ry
     hartree contribution      =     145.19319847 Ry
     xc contribution           =     -61.24851428 Ry
     ewald contribution        =    -185.80843369 Ry
     Hubbard energy            =       0.24505750 Ry
     one-center paw contrib.   =    -178.74154127 Ry

     convergence has been achieved in  14 iterations
     force_hub    :     71.03s CPU     10.46s WALL (       5 calls)
     dndtau       :     62.03s CPU      9.24s WALL (    3780 calls)
     dprojdtau    :      9.62s CPU      1.45s WALL (    3780 calls)
     calc_doverla :     32.89s CPU      4.93s WALL (    3780 calls)
     matel_dSdtau :     46.27s CPU      6.60s WALL (    7560 calls)

     Forces acting on atoms (cartesian axes, Ry/au):

     atom    1 type  1   force =     0.00125267    0.00035878   -0.00528409
     atom    2 type  1   force =    -0.00013757    0.00333611    0.00193086
     atom    3 type  3   force =    -0.00005055    0.00219163   -0.00241508
     atom    4 type  2   force =    -0.00053212   -0.00110644    0.00309845
     atom    5 type  2   force =     0.00025144    0.00030485   -0.00322639
     atom    6 type  2   force =    -0.00007455   -0.00711892    0.00102942
     atom    7 type  2   force =    -0.00070931    0.00203399    0.00486682

     Total force =     0.012525     Total SCF correction =     0.000158


     Computing stress (Cartesian axis) and pressure

     stres_hub    :    199.86s CPU     26.59s WALL (       5 calls)
     dprojdepsilo :    163.42s CPU     21.60s WALL (    1620 calls)
     dprojdeps1   :     17.08s CPU      2.42s WALL (    1620 calls)
     dprojdeps2   :     91.66s CPU     12.04s WALL (    1620 calls)
     dprojdeps3   :     54.61s CPU      7.13s WALL (    1620 calls)
          total   stress  (Ry/bohr**3)                   (kbar)     P=       -0.09
  -0.00005447  -0.00000479   0.00000449           -8.01       -0.70        0.66
  -0.00000479   0.00002141   0.00002479           -0.70        3.15        3.65
   0.00000449   0.00002479   0.00003122            0.66        3.65        4.59

     Energy error            =      8.5E-04 Ry
     Gradient error          =      7.1E-03 Ry/Bohr
     Cell gradient error     =      8.0E+00 kbar

     number of scf cycles    =   5
     number of bfgs steps    =   4

     enthalpy           old  =    -520.6193290228 Ry
     enthalpy           new  =    -520.6201748305 Ry

     CASE: enthalpy          _new < enthalpy          _old

     new trust radius        =       0.0241838837 bohr
     new conv_thr            =       0.0000000712 Ry

     new unit-cell volume =    487.99342 a.u.^3 (    72.31316 Ang^3 )
     density =      3.84734 g/cm^3

CELL_PARAMETERS (angstrom)
   2.970569409  -0.001525542   0.001427155
   1.503315351   6.173593728  -0.026218067
   2.970052748   3.166589654   3.930227151

ATOMIC_POSITIONS (angstrom)
Mg               3.4501363175        4.7898460373        1.4587609808
Mg               0.4794033997        1.1100351782        0.3320592934
Mn               4.9362408567        2.3269446581        2.5308592320
O                3.4686175861        6.8911586764        1.7888505321
O                4.9354065282        4.3057054809        2.8667048358
O                3.4519184858        2.7988111973        1.3590360327
O                4.9522254994        8.3789393715        3.8663435359



     Writing config-only to output data dir .\out\\qgan.save\ :
     XML data file
     NEW-OLD atomic charge density approx. for the potential
     New effective cutoffs (rho, wfc):  496.22   62.09

     Check: negative core charge=   -0.000002

     Atomic wfc used for Hubbard projectors are orthogonalized


     total cpu time spent up to now is      294.0 secs

     Self-consistent Calculation

     iteration #  1     ecut=    60.00 Ry     beta= 0.70
     Davidson diagonalization with overlap
     ethr =  1.00E-06,  avg # of iterations =  9.3

     =================== HUBBARD OCCUPATIONS ===================
     ------------------------ ATOM    3 ------------------------
     Tr[ns(  3)] =   5.23956
     eigenvalues:
       0.220  0.311  0.399  0.714  0.975
     eigenvectors (columns):
      -0.535 -0.000  0.202  0.002 -0.820
       0.002 -0.964 -0.003  0.266 -0.001
       0.803  0.000  0.423 -0.002 -0.420
      -0.263 -0.003  0.883  0.001  0.389
      -0.003 -0.266 -0.000 -0.964 -0.001
     occupation matrix ns (before diag.):
       0.735  0.001  0.275 -0.209 -0.001
       0.001  0.340 -0.000 -0.000 -0.103
       0.275 -0.000  0.385 -0.056  0.001
      -0.209 -0.000 -0.056  0.474 -0.001
      -0.001 -0.103  0.001 -0.001  0.686

     Number of occupied Hubbard levels =    5.2396

     total cpu time spent up to now is      299.6 secs

     total energy              =    -520.62033502 Ry
     estimated scf accuracy    <       0.00028909 Ry

     iteration #  2     ecut=    60.00 Ry     beta= 0.70
     Davidson diagonalization with overlap
     ethr =  6.72E-07,  avg # of iterations =  4.1

     total cpu time spent up to now is      302.5 secs

     total energy              =    -520.62014644 Ry
     estimated scf accuracy    <       0.00242137 Ry

     iteration #  3     ecut=    60.00 Ry     beta= 0.70
     Davidson diagonalization with overlap
     ethr =  6.72E-07,  avg # of iterations =  3.0

     total cpu time spent up to now is      305.0 secs

     total energy              =    -520.62039586 Ry
     estimated scf accuracy    <       0.00035071 Ry

     iteration #  4     ecut=    60.00 Ry     beta= 0.70
     Davidson diagonalization with overlap
     ethr =  6.72E-07,  avg # of iterations =  2.0

     total cpu time spent up to now is      307.1 secs

     total energy              =    -520.62045817 Ry
     estimated scf accuracy    <       0.00004331 Ry

     iteration #  5     ecut=    60.00 Ry     beta= 0.70
     Davidson diagonalization with overlap
     ethr =  1.01E-07,  avg # of iterations =  4.9

     total cpu time spent up to now is      310.0 secs

     total energy              =    -520.62048278 Ry
     estimated scf accuracy    <       0.00002877 Ry

     iteration #  6     ecut=    60.00 Ry     beta= 0.70
     Davidson diagonalization with overlap
     ethr =  6.69E-08,  avg # of iterations =  1.2

     total cpu time spent up to now is      312.1 secs

     total energy              =    -520.62048301 Ry
     estimated scf accuracy    <       0.00001123 Ry

     iteration #  7     ecut=    60.00 Ry     beta= 0.70
     Davidson diagonalization with overlap
     ethr =  2.61E-08,  avg # of iterations =  2.0

     total cpu time spent up to now is      314.3 secs

     total energy              =    -520.62048304 Ry
     estimated scf accuracy    <       0.00000385 Ry

     iteration #  8     ecut=    60.00 Ry     beta= 0.70
     Davidson diagonalization with overlap
     ethr =  8.96E-09,  avg # of iterations =  2.3

     total cpu time spent up to now is      316.6 secs

     total energy              =    -520.62048354 Ry
     estimated scf accuracy    <       0.00000041 Ry

     iteration #  9     ecut=    60.00 Ry     beta= 0.70
     Davidson diagonalization with overlap
     c_bands:  2 eigenvalues not converged
     c_bands:  2 eigenvalues not converged
     ethr =  9.45E-10,  avg # of iterations = 13.4

     total cpu time spent up to now is      321.4 secs

     total energy              =    -520.62048443 Ry
     estimated scf accuracy    <       0.00000019 Ry

     iteration # 10     ecut=    60.00 Ry     beta= 0.70
     Davidson diagonalization with overlap
     ethr =  4.42E-10,  avg # of iterations =  3.4

     total cpu time spent up to now is      323.8 secs

     total energy              =    -520.62048445 Ry
     estimated scf accuracy    <       0.00000009 Ry

     iteration # 11     ecut=    60.00 Ry     beta= 0.70
     Davidson diagonalization with overlap
     ethr =  2.16E-10,  avg # of iterations =  8.8

     total cpu time spent up to now is      327.4 secs

     End of self-consistent calculation

     =================== HUBBARD OCCUPATIONS ===================
     ------------------------ ATOM    3 ------------------------
     Tr[ns(  3)] =   5.23572
     eigenvalues:
       0.219  0.312  0.399  0.714  0.975
     eigenvectors (columns):
      -0.535 -0.000  0.202  0.002  0.820
       0.002  0.964 -0.003  0.265  0.001
       0.803 -0.000  0.423 -0.002  0.420
      -0.262  0.003  0.883  0.001 -0.389
      -0.003  0.265 -0.001 -0.964  0.001
     occupation matrix ns (before diag.):
       0.735  0.001  0.276 -0.209 -0.000
       0.001  0.340 -0.000 -0.000 -0.103
       0.276 -0.000  0.384 -0.056  0.001
      -0.209 -0.000 -0.056  0.473 -0.001
      -0.000 -0.103  0.001 -0.001  0.685

     Number of occupied Hubbard levels =    5.2357

          k = 0.0000 0.0000 0.0000 (  3893 PWs)   bands (ev):

   -72.9015 -42.3238 -41.5513 -40.9406 -11.8838 -10.5553 -10.2861 -10.0582
     0.8153   1.5019   2.2319   2.6794   3.0626   3.8900   4.1402   4.3380
     4.6295   5.4105   5.5993   5.6389   6.0556   7.1060   7.9930  10.0522
    10.3312  11.7123

          k =-0.0001 0.0008 0.1876 (  3895 PWs)   bands (ev):

   -72.9015 -42.3238 -41.5513 -40.9406 -11.6861 -10.7092 -10.3614 -10.0939
     1.0080   1.7953   1.9878   3.0645   3.0724   3.8523   4.0330   4.4509
     4.6286   4.9469   5.5490   5.5601   5.7515   7.0635   8.0928   9.7643
    10.3747  12.8266

          k = 0.0002-0.0016-0.3752 (  3894 PWs)   bands (ev):

   -72.9014 -42.3239 -41.5513 -40.9406 -11.3502 -10.9889 -10.4357 -10.1447
     1.2588   1.8314   2.5267   3.0128   3.0603   3.4916   3.8482   4.5403
     4.5555   4.8372   5.4633   5.4769   5.6113   7.0202   8.1707   9.5294
    10.4187  14.4294

          k = 0.0001 0.1194-0.0962 (  3889 PWs)   bands (ev):

   -72.9015 -42.3238 -41.5513 -40.9406 -11.7794 -10.5842 -10.4188 -10.0423
     1.0361   1.5195   2.1918   2.7882   3.0989   3.9113   4.1260   4.2836
     4.7041   5.0092   5.4732   5.5908   6.0579   7.1289   7.9868  10.1141
    10.3736  12.5030

          k = 0.0000 0.1202 0.0913 (  3904 PWs)   bands (ev):

   -72.9015 -42.3238 -41.5513 -40.9406 -11.7298 -10.7904 -10.2582 -10.0464
     0.9497   1.7995   2.0938   2.8901   3.0292   3.8105   3.8910   4.4551
     4.6446   5.2090   5.5450   5.5730   5.8278   7.1001   8.0897   9.7638
    10.3315  12.4776

          k = 0.0003 0.1177-0.4714 (  3922 PWs)   bands (ev):

   -72.9014 -42.3239 -41.5513 -40.9406 -11.3990 -11.0690 -10.3382 -10.0864
     1.3030   1.6493   2.4376   3.0278   3.1499   3.5105   3.8750   4.3449
     4.5596   5.0840   5.4282   5.4575   5.6616   7.0560   8.1902   9.5289
    10.3755  13.8299

          k = 0.0002 0.1185-0.2838 (  3906 PWs)   bands (ev):

   -72.9014 -42.3238 -41.5513 -40.9406 -11.5340 -10.7893 -10.4884 -10.0809
     1.2315   1.7881   2.2271   2.9705   3.0985   3.8261   3.8706   4.4043
     4.5137   4.9082   5.4289   5.5073   5.7575   7.0893   8.1117   9.8419
    10.4167  14.0673

          k =-0.0002-0.2387 0.1925 (  3908 PWs)   bands (ev):

   -72.9015 -42.3238 -41.5513 -40.9406 -11.6464 -10.6849 -10.5039 -10.0298
     1.0178   1.8598   2.3991   2.8216   3.1379   3.6023   3.9365   4.2239
     4.5849   4.9924   5.4651   5.5418   6.0612   7.1520   7.9787  10.1804
    10.4153  13.8090

          k =-0.0003-0.2379 0.3801 (  3906 PWs)   bands (ev):

   -72.9014 -42.3238 -41.5513 -40.9406 -11.5913 -10.8603 -10.3790 -10.0367
     1.3342   1.7546   1.9979   2.9100   3.0609   3.7942   3.9135   4.4072
     4.7424   4.8982   5.4238   5.4929   5.7925   7.1242   8.1191   9.8460
    10.3738  13.4012

          k =-0.0000-0.2404-0.1827 (  3902 PWs)   bands (ev):

   -72.9015 -42.3239 -41.5513 -40.9406 -11.4397 -11.1394 -10.2460 -10.0406
     1.1575   1.8125   2.3170   2.9971   3.0344   3.7029   3.9039   4.1083
     4.5691   5.1912   5.4446   5.5567   5.7136   7.0902   8.1585   9.5105
    10.3322  13.7369

          k = 0.2490-0.0612-0.1388 (  3913 PWs)   bands (ev):

   -72.8987 -42.3209 -41.5458 -40.9785 -11.3291 -10.5851 -10.2148 -10.0499
     1.3969   1.6631   2.1300   2.4273   2.7896   3.0137   3.8135   4.0048
     4.2699   5.0159   5.2929   5.4933   6.1044   6.9598   8.0059   9.6740
    10.0827  13.9218

          k = 0.2489-0.0604 0.0487 (  3893 PWs)   bands (ev):

   -72.8987 -42.3209 -41.5458 -40.9785 -11.4288 -10.4587 -10.2583 -10.0173
     1.4158   1.8133   2.0398   2.4475   2.8211   2.8761   3.7021   3.9528
     4.2976   5.0126   5.3740   5.5530   6.0324   7.0519   7.9357   9.7385
    10.0566  13.5744

          k = 0.2492-0.0629-0.5140 (  3920 PWs)   bands (ev):

   -72.8987 -42.3209 -41.5459 -40.9785 -11.2326 -10.5544 -10.3506 -10.0663
     1.3175   1.6729   2.2002   2.5598   2.6756   3.0066   3.9727   4.0998
     4.3985   4.9240   5.0526   5.4625   6.1445   6.9542   8.0014   9.6243
    10.0094  14.6929

          k = 0.2491-0.0620-0.3264 (  3917 PWs)   bands (ev):

   -72.8987 -42.3209 -41.5459 -40.9785 -11.0429 -10.7712 -10.3035 -10.1029
     1.3247   1.6398   2.0992   2.4450   2.7313   3.3560   3.9015   4.1912
     4.3751   4.8678   5.0011   5.4504   6.1623   6.8760   8.0684   9.7835
     9.8411  15.0911

          k = 0.2491 0.0581-0.2351 (  3918 PWs)   bands (ev):

   -72.8987 -42.3209 -41.5459 -40.9785 -11.2347 -10.5535 -10.3487 -10.0665
     1.3167   1.6742   2.2013   2.5560   2.6765   3.0043   3.9704   4.0977
     4.4012   4.9300   5.0495   5.4643   6.1451   6.9559   8.0005   9.6249
    10.0085  14.6870

          k = 0.2490 0.0590-0.0475 (  3898 PWs)   bands (ev):

   -72.8987 -42.3209 -41.5458 -40.9785 -11.4301 -10.4586 -10.2566 -10.0173
     1.4154   1.8127   2.0402   2.4462   2.8154   2.8821   3.7010   3.9503
     4.3010   5.0073   5.3820   5.5535   6.0298   7.0526   7.9357   9.7382
    10.0572  13.5710

          k = 0.2493 0.0565-0.6103 (  3911 PWs)   bands (ev):

   -72.8987 -42.3209 -41.5458 -40.9785 -11.3286 -10.5842 -10.2159 -10.0505
     1.3953   1.6648   2.1292   2.4249   2.7967   3.0101   3.8138   4.0065
     4.2723   5.0119   5.2898   5.4947   6.1063   6.9602   8.0058   9.6711
    10.0830  13.9277

          k = 0.2492 0.0573-0.4227 (  3915 PWs)   bands (ev):

   -72.8987 -42.3209 -41.5459 -40.9785 -11.0425 -10.7700 -10.3045 -10.1037
     1.3246   1.6392   2.0982   2.4447   2.7317   3.3594   3.9052   4.1896
     4.3713   4.8654   5.0038   5.4515   6.1634   6.8768   8.0670   9.7831
     9.8389  15.0944

          k = 0.2488-0.2999 0.0537 (  3925 PWs)   bands (ev):

   -72.8987 -42.3209 -41.5459 -40.9785 -11.1631 -10.6513 -10.3495 -10.0509
     1.4650   1.8312   2.1134   2.4578   2.6797   3.1183   3.6907   4.0160
     4.3815   4.8989   5.1114   5.5210   6.1334   6.9663   8.0174   9.6336
    10.0906  14.6974

          k = 0.2487-0.2991 0.2412 (  3915 PWs)   bands (ev):

   -72.8987 -42.3209 -41.5459 -40.9785 -11.2978 -10.4787 -10.4037 -10.0170
     1.3820   1.9677   2.2617   2.5042   2.6652   2.8913   3.5386   3.9159
     4.4909   4.9136   5.1422   5.5773   6.0957   7.0734   7.9243   9.6819
    10.0516  14.4746

          k = 0.2490-0.3016-0.3215 (  3914 PWs)   bands (ev):

   -72.8987 -42.3209 -41.5458 -40.9785 -11.2776 -10.6465 -10.2291 -10.0369
     1.6036   1.7788   1.9262   2.5598   2.7920   3.0543   3.5554   3.8774
     4.1450   5.0700   5.3473   5.5569   6.0883   6.9656   8.0195   9.6946
    10.1661  13.8527

          k = 0.2489-0.3008-0.1339 (  3920 PWs)   bands (ev):

   -72.8987 -42.3209 -41.5459 -40.9785 -11.0610 -10.8762 -10.2035 -10.0656
     1.5628   1.7048   1.9637   2.5606   2.7666   3.0943   3.5116   4.1625
     4.2804   4.8561   5.3115   5.5202   6.1376   6.8730   8.0816   9.8793
     9.9277  14.6181

          k = 0.2489-0.1806-0.0426 (  3913 PWs)   bands (ev):

   -72.8987 -42.3209 -41.5458 -40.9785 -11.2759 -10.6472 -10.2306 -10.0367
     1.6038   1.7799   1.9244   2.5666   2.7915   3.0471   3.5560   3.8788
     4.1471   5.0738   5.3388   5.5600   6.0894   6.9652   8.0182   9.6968
    10.1636  13.8531

          k = 0.2488-0.1798 0.1450 (  3921 PWs)   bands (ev):

   -72.8987 -42.3209 -41.5459 -40.9785 -11.2960 -10.4794 -10.4053 -10.0169
     1.3813   1.9669   2.2648   2.5083   2.6655   2.8883   3.5372   3.9171
     4.4899   4.9105   5.1451   5.5765   6.0959   7.0726   7.9244   9.6814
    10.0518  14.4815

          k = 0.2491-0.1822-0.4178 (  3925 PWs)   bands (ev):

   -72.8987 -42.3209 -41.5459 -40.9785 -11.1635 -10.6525 -10.3483 -10.0503
     1.4650   1.8328   2.1120   2.4609   2.6747   3.1228   3.6852   4.0191
     4.3808   4.9017   5.1105   5.5186   6.1312   6.9650   8.0191   9.6338
    10.0935  14.6908

          k = 0.2490-0.1814-0.2302 (  3914 PWs)   bands (ev):

   -72.8987 -42.3209 -41.5458 -40.9785 -11.0611 -10.8774 -10.2024 -10.0652
     1.5638   1.7032   1.9659   2.5625   2.7652   3.0937   3.5070   4.1647
     4.2801   4.8542   5.3169   5.5178   6.1360   6.8721   8.0827   9.8790
     9.9307  14.6169

          k =-0.4980 0.1224 0.2777 (  3922 PWs)   bands (ev):

   -72.8965 -42.3180 -41.5404 -41.0161 -10.6494 -10.4436 -10.2687 -10.1286
     0.7022   1.2084   1.8432   2.2711   2.5890   3.5062   3.8812   4.2511
     4.5243   4.7812   4.8075   5.3202   5.9530   6.7814   7.9108   9.9731
    10.0849  15.3040

          k =-0.4981 0.1233 0.4653 (  3918 PWs)   bands (ev):

   -72.8964 -42.3180 -41.5404 -41.0161 -10.6971 -10.4589 -10.2557 -10.0852
     0.9109   1.2356   1.9684   2.3705   2.5981   3.4292   3.6759   4.2119
     4.3815   4.5241   4.9118   5.1586   5.9493   6.9540   7.8953   9.7819
    10.0462  15.8371

          k =-0.4978 0.1208-0.0975 (  3936 PWs)   bands (ev):

   -72.8964 -42.3180 -41.5404 -41.0161 -10.7366 -10.4779 -10.2400 -10.0488
     1.0850   1.3516   2.2112   2.4326   2.6609   3.0872   3.4022   4.1454
     4.3286   4.4923   4.8834   5.0379   5.9400   7.0848   7.8842   9.5652
    10.0603  16.0712

          k =-0.4979 0.2418 0.1814 (  3934 PWs)   bands (ev):

   -72.8965 -42.3180 -41.5404 -41.0161 -10.6495 -10.4435 -10.2683 -10.1291
     0.7661   1.1129   1.8495   2.2681   2.5684   3.6649   3.8540   4.1884
     4.5172   4.7638   4.8192   5.3130   5.9520   6.7849   7.9041   9.9886
    10.0588  15.6308

          k =-0.4980 0.2426 0.3690 (  3923 PWs)   bands (ev):

   -72.8964 -42.3180 -41.5404 -41.0161 -10.6975 -10.4625 -10.2517 -10.0850
     0.8982   1.2703   1.9659   2.2266   2.7991   3.3405   3.6746   4.1899
     4.3946   4.5238   4.9294   5.1629   5.9474   6.9596   7.8949   9.7684
    10.0605  15.6229

          k =-0.4977 0.2402-0.1937 (  3915 PWs)   bands (ev):

   -72.8964 -42.3180 -41.5404 -41.0161 -10.7394 -10.4732 -10.2449 -10.0455
     1.1022   1.3196   2.1742   2.5230   2.6967   2.9941   3.4666   4.1243
     4.2604   4.4858   4.8659   5.0979   5.9438   7.0912   7.8841   9.5735
    10.0518  16.0239

          k =-0.4978 0.2410-0.0062 (  3927 PWs)   bands (ev):

   -72.8964 -42.3180 -41.5404 -41.0161 -10.6965 -10.4607 -10.2536 -10.0860
     0.8970   1.2707   1.9615   2.2261   2.7981   3.3424   3.6756   4.1961
     4.3996   4.5220   4.9303   5.1600   5.9480   6.9579   7.8934   9.7698
    10.0604  15.6143

          k =-0.4982-0.1163 0.4702 (  3928 PWs)   bands (ev):

   -72.8965 -42.3180 -41.5404 -41.0161 -10.6498 -10.4420 -10.2701 -10.1283
     0.7039   1.2081   1.8399   2.2637   2.5808   3.5077   3.8919   4.2595
     4.5311   4.7783   4.8084   5.3178   5.9535   6.7811   7.9075   9.9696
    10.0862  15.2964

          k =-0.4983-0.1155 0.6578 (  3915 PWs)   bands (ev):

   -72.8964 -42.3180 -41.5404 -41.0161 -10.6984 -10.4594 -10.2551 -10.0838
     0.9143   1.2343   1.9671   2.3675   2.5913   3.4294   3.6776   4.2168
     4.3797   4.5290   4.9122   5.1588   5.9491   6.9555   7.8938   9.7792
    10.0466  15.8484

          k =-0.4980-0.1179 0.0950 (  3928 PWs)   bands (ev):

   -72.8964 -42.3180 -41.5404 -41.0161 -10.7387 -10.4800 -10.2377 -10.0467
     1.0908   1.3512   2.2097   2.4285   2.6569   3.0864   3.4039   4.1425
     4.3290   4.4929   4.8882   5.0376   5.9393   7.0879   7.8839   9.5600
    10.0608  16.0724

     the Fermi energy is     7.0268 ev

!    total energy              =    -520.62048452 Ry
     total all-electron energy =     -3720.873743 Ry
     estimated scf accuracy    <          4.6E-09 Ry
     smearing contrib. (-TS)   =      -0.00503327 Ry
     internal energy E=F+TS    =    -520.61545125 Ry

     The total energy is F=E-TS. E is the sum of the following terms:
     one-electron contribution =    -240.15628282 Ry
     hartree contribution      =     145.13600736 Ry
     xc contribution           =     -61.24545622 Ry
     ewald contribution        =    -185.85352427 Ry
     Hubbard energy            =       0.24480219 Ry
     one-center paw contrib.   =    -178.74099748 Ry

     convergence has been achieved in  11 iterations
     force_hub    :     85.14s CPU     12.60s WALL (       6 calls)
     dndtau       :     74.33s CPU     11.12s WALL (    4536 calls)
     dprojdtau    :     11.00s CPU      1.73s WALL (    4536 calls)
     calc_doverla :     40.52s CPU      5.96s WALL (    4536 calls)
     matel_dSdtau :     55.62s CPU      7.98s WALL (    9072 calls)

     Forces acting on atoms (cartesian axes, Ry/au):

     atom    1 type  1   force =     0.00104283    0.00211795   -0.00370502
     atom    2 type  1   force =     0.00001398    0.00077154    0.00441532
     atom    3 type  3   force =    -0.00016329   -0.00065014   -0.00293649
     atom    4 type  2   force =    -0.00043811    0.00089370    0.00249420
     atom    5 type  2   force =     0.00018219   -0.00091038   -0.00424803
     atom    6 type  2   force =     0.00001783   -0.00390357    0.00135427
     atom    7 type  2   force =    -0.00065543    0.00168091    0.00262573

     Total force =     0.010090     Total SCF correction =     0.000072


     Computing stress (Cartesian axis) and pressure

     stres_hub    :    240.95s CPU     31.87s WALL (       6 calls)
     dprojdepsilo :    196.52s CPU     25.87s WALL (    1944 calls)
     dprojdeps1   :     20.89s CPU      2.90s WALL (    1944 calls)
     dprojdeps2   :    110.72s CPU     14.43s WALL (    1944 calls)
     dprojdeps3   :     64.83s CPU      8.54s WALL (    1944 calls)
          total   stress  (Ry/bohr**3)                   (kbar)     P=       -1.70
  -0.00005207  -0.00000392   0.00000399           -7.66       -0.58        0.59
  -0.00000392  -0.00000330   0.00001243           -0.58       -0.48        1.83
   0.00000399   0.00001243   0.00002077            0.59        1.83        3.06

     Energy error            =      3.1E-04 Ry
     Gradient error          =      4.4E-03 Ry/Bohr
     Cell gradient error     =      7.7E+00 kbar

     number of scf cycles    =   6
     number of bfgs steps    =   5

     enthalpy           old  =    -520.6201748305 Ry
     enthalpy           new  =    -520.6204845208 Ry

     CASE: enthalpy          _new < enthalpy          _old

     new trust radius        =       0.0199358232 bohr
     new conv_thr            =       0.0000000310 Ry

     new unit-cell volume =    487.87461 a.u.^3 (    72.29556 Ang^3 )
     density =      3.84828 g/cm^3

CELL_PARAMETERS (angstrom)
   2.965064200  -0.002398985   0.002246142
   1.498652125   6.178435267  -0.019161343
   2.964711348   3.172722066   3.937424064

ATOMIC_POSITIONS (angstrom)
Mg               3.4451127610        4.7906276003        1.4564684287
Mg               0.4779533822        1.1169332290        0.3304554256
Mn               4.9267155230        2.3292123507        2.5368138831
O                3.4594419481        6.8986401702        1.8069514963
O                4.9263793740        4.3113387072        2.8702265210
O                3.4451854571        2.7950876616        1.3648893420
O                4.9403632048        8.3938524906        3.8876120465



     Writing config-only to output data dir .\out\\qgan.save\ :
     XML data file
     NEW-OLD atomic charge density approx. for the potential
     New effective cutoffs (rho, wfc):  494.77   61.89

     Check: negative core charge=   -0.000002

     Atomic wfc used for Hubbard projectors are orthogonalized


     total cpu time spent up to now is      337.8 secs

     Self-consistent Calculation

     iteration #  1     ecut=    60.00 Ry     beta= 0.70
     Davidson diagonalization with overlap
     ethr =  1.00E-06,  avg # of iterations = 10.6

     =================== HUBBARD OCCUPATIONS ===================
     ------------------------ ATOM    3 ------------------------
     Tr[ns(  3)] =   5.23937
     eigenvalues:
       0.220  0.311  0.399  0.714  0.976
     eigenvectors (columns):
       0.536  0.000 -0.203  0.002 -0.819
      -0.002 -0.965  0.003  0.263 -0.001
      -0.803  0.000 -0.423 -0.002 -0.421
       0.261 -0.003 -0.883  0.000  0.389
       0.003 -0.263  0.001 -0.965 -0.001
     occupation matrix ns (before diag.):
       0.735  0.001  0.276 -0.209 -0.000
       0.001  0.339 -0.000 -0.001 -0.102
       0.276 -0.000  0.386 -0.057  0.001
      -0.209 -0.001 -0.057  0.474 -0.001
      -0.000 -0.102  0.001 -0.001  0.686

     Number of occupied Hubbard levels =    5.2394

     total cpu time spent up to now is      343.3 secs

     total energy              =    -520.62058025 Ry
     estimated scf accuracy    <       0.00019262 Ry

     iteration #  2     ecut=    60.00 Ry     beta= 0.70
     Davidson diagonalization with overlap
     ethr =  4.48E-07,  avg # of iterations =  4.1

     total cpu time spent up to now is      346.2 secs

     total energy              =    -520.62046072 Ry
     estimated scf accuracy    <       0.00147900 Ry

     iteration #  3     ecut=    60.00 Ry     beta= 0.70
     Davidson diagonalization with overlap
     ethr =  4.48E-07,  avg # of iterations =  2.4

     total cpu time spent up to now is      348.5 secs

     total energy              =    -520.62061137 Ry
     estimated scf accuracy    <       0.00024297 Ry

     iteration #  4     ecut=    60.00 Ry     beta= 0.70
     Davidson diagonalization with overlap
     ethr =  4.48E-07,  avg # of iterations =  2.0

     total cpu time spent up to now is      350.8 secs

     total energy              =    -520.62065690 Ry
     estimated scf accuracy    <       0.00004324 Ry

     iteration #  5     ecut=    60.00 Ry     beta= 0.70
     Davidson diagonalization with overlap
     ethr =  1.01E-07,  avg # of iterations =  4.4

     total cpu time spent up to now is      353.7 secs

     total energy              =    -520.62067336 Ry
     estimated scf accuracy    <       0.00001866 Ry

     iteration #  6     ecut=    60.00 Ry     beta= 0.70
     Davidson diagonalization with overlap
     ethr =  4.34E-08,  avg # of iterations =  1.7

     total cpu time spent up to now is      355.9 secs

     total energy              =    -520.62067379 Ry
     estimated scf accuracy    <       0.00000759 Ry

     iteration #  7     ecut=    60.00 Ry     beta= 0.70
     Davidson diagonalization with overlap
     ethr =  1.76E-08,  avg # of iterations =  2.0

     total cpu time spent up to now is      358.2 secs

     total energy              =    -520.62067390 Ry
     estimated scf accuracy    <       0.00000209 Ry

     iteration #  8     ecut=    60.00 Ry     beta= 0.70
     Davidson diagonalization with overlap
     ethr =  4.86E-09,  avg # of iterations =  5.1

     total cpu time spent up to now is      360.9 secs

     total energy              =    -520.62067478 Ry
     estimated scf accuracy    <       0.00000008 Ry

     iteration #  9     ecut=    60.00 Ry     beta= 0.70
     Davidson diagonalization with overlap
     c_bands:  2 eigenvalues not converged
     c_bands:  4 eigenvalues not converged
     c_bands:  2 eigenvalues not converged
     c_bands:  2 eigenvalues not converged
     c_bands:  5 eigenvalues not converged
     c_bands:  4 eigenvalues not converged
     c_bands:  2 eigenvalues not converged
     c_bands:  2 eigenvalues not converged
     c_bands:  4 eigenvalues not converged
     c_bands:  3 eigenvalues not converged
     c_bands:  4 eigenvalues not converged
     c_bands:  1 eigenvalues not converged
     ethr =  1.94E-10,  avg # of iterations = 20.2

     total cpu time spent up to now is      368.4 secs

     total energy              =    -520.62067531 Ry
     estimated scf accuracy    <       0.00000019 Ry

     iteration # 10     ecut=    60.00 Ry     beta= 0.70
     Davidson diagonalization with overlap
     ethr =  1.94E-10,  avg # of iterations =  4.1

     total cpu time spent up to now is      370.8 secs

     total energy              =    -520.62067534 Ry
     estimated scf accuracy    <       0.00000009 Ry

     iteration # 11     ecut=    60.00 Ry     beta= 0.70
     Davidson diagonalization with overlap
     ethr =  1.94E-10,  avg # of iterations =  3.1

     total cpu time spent up to now is      373.3 secs

     total energy              =    -520.62067540 Ry
     estimated scf accuracy    <       0.00000003 Ry

     iteration # 12     ecut=    60.00 Ry     beta= 0.70
     Davidson diagonalization with overlap
     ethr =  7.44E-11,  avg # of iterations =  7.1

     total cpu time spent up to now is      376.4 secs

     total energy              =    -520.62067528 Ry
     estimated scf accuracy    <       0.00000004 Ry

     iteration # 13     ecut=    60.00 Ry     beta= 0.70
     Davidson diagonalization with overlap
     ethr =  7.44E-11,  avg # of iterations =  4.0

     total cpu time spent up to now is      379.0 secs

     End of self-consistent calculation

     =================== HUBBARD OCCUPATIONS ===================
     ------------------------ ATOM    3 ------------------------
     Tr[ns(  3)] =   5.23667
     eigenvalues:
       0.219  0.311  0.398  0.714  0.975
     eigenvectors (columns):
       0.538  0.001 -0.204  0.001 -0.818
      -0.001 -0.964  0.002  0.265 -0.002
      -0.802  0.000 -0.422 -0.001 -0.423
       0.259 -0.003 -0.883 -0.000  0.391
       0.002 -0.265  0.001 -0.964 -0.001
     occupation matrix ns (before diag.):
       0.732  0.001  0.277 -0.209 -0.000
       0.001  0.340  0.000 -0.001 -0.103
       0.277  0.000  0.386 -0.058  0.001
      -0.209 -0.001 -0.058  0.475 -0.000
      -0.000 -0.103  0.001 -0.000  0.685

     Number of occupied Hubbard levels =    5.2367

          k = 0.0000 0.0000 0.0000 (  3893 PWs)   bands (ev):

   -72.8946 -42.3197 -41.5427 -40.9333 -11.8810 -10.5502 -10.2848 -10.0649
     0.8183   1.4998   2.2345   2.6931   3.0661   3.9118   4.1148   4.3561
     4.6259   5.4067   5.6123   5.6500   6.0519   7.1258   7.9954  10.0598
    10.3338  11.7180

          k =-0.0001 0.0006 0.1874 (  3895 PWs)   bands (ev):

   -72.8945 -42.3197 -41.5427 -40.9333 -11.6845 -10.7056 -10.3557 -10.1019
     1.0126   1.7955   1.9848   3.0680   3.0784   3.8734   4.0276   4.4680
     4.6079   4.9494   5.5586   5.5739   5.7539   7.0830   8.0954   9.7715
    10.3762  12.8333

          k = 0.0003-0.0012-0.3749 (  3894 PWs)   bands (ev):

   -72.8944 -42.3198 -41.5427 -40.9333 -11.3542 -10.9806 -10.4273 -10.1541
     1.2713   1.8237   2.5141   3.0125   3.0642   3.4945   3.8676   4.5462
     4.5596   4.8365   5.4661   5.4936   5.6196   7.0394   8.1756   9.5331
    10.4193  14.4384

          k = 0.0002 0.1194-0.0963 (  3889 PWs)   bands (ev):

   -72.8945 -42.3197 -41.5427 -40.9333 -11.7764 -10.5788 -10.4190 -10.0478
     1.0394   1.5171   2.1930   2.7971   3.1015   3.9330   4.1161   4.3026
     4.6906   5.0147   5.4742   5.6022   6.0583   7.1492   7.9882  10.1225
    10.3747  12.5093

          k = 0.0000 0.1200 0.0911 (  3904 PWs)   bands (ev):

   -72.8946 -42.3197 -41.5427 -40.9333 -11.7283 -10.7880 -10.2504 -10.0551
     0.9503   1.8004   2.0973   2.8945   3.0333   3.8082   3.9123   4.4726
     4.6284   5.2070   5.5566   5.5779   5.8274   7.1196   8.0922   9.7734
    10.3345  12.4834

          k = 0.0005 0.1181-0.4712 (  3922 PWs)   bands (ev):

   -72.8945 -42.3198 -41.5427 -40.9334 -11.4028 -11.0619 -10.3292 -10.0953
     1.3070   1.6514   2.4264   3.0322   3.1550   3.5119   3.8950   4.3399
     4.5764   5.0775   5.4286   5.4718   5.6670   7.0753   8.1933   9.5375
    10.3775  13.8431

          k = 0.0003 0.1187-0.2837 (  3906 PWs)   bands (ev):

   -72.8945 -42.3197 -41.5427 -40.9333 -11.5325 -10.7857 -10.4844 -10.0870
     1.2356   1.7888   2.2218   2.9705   3.1013   3.8300   3.8912   4.4224
     4.5054   4.9015   5.4318   5.5214   5.7630   7.1093   8.1146   9.8488
    10.4169  14.0769

          k =-0.0003-0.2387 0.1926 (  3908 PWs)   bands (ev):

   -72.8945 -42.3197 -41.5427 -40.9333 -11.6430 -10.6799 -10.5051 -10.0343
     1.0183   1.8599   2.3982   2.8282   3.1396   3.6026   3.9579   4.2440
     4.5751   4.9894   5.4644   5.5536   6.0634   7.1728   7.9794  10.1898
    10.4150  13.8205

          k =-0.0005-0.2381 0.3801 (  3906 PWs)   bands (ev):

   -72.8945 -42.3197 -41.5427 -40.9333 -11.5898 -10.8582 -10.3731 -10.0430
     1.3349   1.7533   1.9998   2.9122   3.0644   3.7988   3.9344   4.4256
     4.7406   4.8822   5.4225   5.5049   5.7978   7.1443   8.1214   9.8554
    10.3753  13.4088

          k =-0.0001-0.2400-0.1823 (  3902 PWs)   bands (ev):

   -72.8946 -42.3198 -41.5427 -40.9333 -11.4434 -11.1331 -10.2355 -10.0502
     1.1540   1.8246   2.3090   3.0019   3.0345   3.7100   3.9243   4.1045
     4.5867   5.1810   5.4565   5.5536   5.7153   7.1096   8.1608   9.5225
    10.3356  13.7533

          k = 0.2495-0.0609-0.1387 (  3913 PWs)   bands (ev):

   -72.8917 -42.3167 -41.5372 -40.9720 -11.3247 -10.5800 -10.2148 -10.0480
     1.4042   1.6716   2.1277   2.4322   2.7785   3.0179   3.8261   4.0066
     4.2759   5.0142   5.2885   5.5004   6.1071   6.9705   8.0138   9.6797
    10.0899  13.9290

          k = 0.2493-0.0603 0.0487 (  3893 PWs)   bands (ev):

   -72.8917 -42.3167 -41.5372 -40.9720 -11.4234 -10.4524 -10.2611 -10.0149
     1.4226   1.8129   2.0473   2.4453   2.8244   2.8687   3.7082   3.9710
     4.2932   5.0228   5.3737   5.5507   6.0344   7.0611   7.9431   9.7453
    10.0646  13.5797

          k = 0.2498-0.0622-0.5136 (  3920 PWs)   bands (ev):

   -72.8917 -42.3167 -41.5372 -40.9720 -11.2286 -10.5492 -10.3475 -10.0671
     1.3241   1.6813   2.1972   2.5561   2.6737   3.0110   3.9863   4.1167
     4.3905   4.9160   5.0555   5.4661   6.1486   6.9621   8.0089   9.6328
    10.0194  14.7018

          k = 0.2496-0.0616-0.3262 (  3917 PWs)   bands (ev):

   -72.8917 -42.3168 -41.5372 -40.9720 -11.0435 -10.7621 -10.2980 -10.1055
     1.3355   1.6486   2.0920   2.4447   2.7317   3.3593   3.9101   4.1984
     4.3807   4.8560   5.0014   5.4528   6.1693   6.8846   8.0761   9.7926
     9.8494  15.1004

          k = 0.2497 0.0584-0.2350 (  3918 PWs)   bands (ev):

   -72.8917 -42.3167 -41.5372 -40.9720 -11.2301 -10.5486 -10.3461 -10.0673
     1.3235   1.6825   2.1979   2.5535   2.6745   3.0092   3.9837   4.1156
     4.3928   4.9196   5.0534   5.4673   6.1493   6.9636   8.0083   9.6338
    10.0181  14.6975

          k = 0.2495 0.0590-0.0476 (  3898 PWs)   bands (ev):

   -72.8917 -42.3167 -41.5372 -40.9720 -11.4243 -10.4524 -10.2600 -10.0149
     1.4223   1.8124   2.0476   2.4443   2.8201   2.8734   3.7074   3.9693
     4.2958   5.0188   5.3788   5.5513   6.0327   7.0618   7.9431   9.7452
    10.0650  13.5772

          k = 0.2499 0.0572-0.6099 (  3911 PWs)   bands (ev):

   -72.8917 -42.3167 -41.5372 -40.9720 -11.3244 -10.5792 -10.2157 -10.0483
     1.4029   1.6727   2.1272   2.4303   2.7835   3.0153   3.8267   4.0082
     4.2772   5.0112   5.2867   5.5016   6.1082   6.9710   8.0137   9.6770
    10.0906  13.9333

          k = 0.2498 0.0578-0.4225 (  3915 PWs)   bands (ev):

   -72.8917 -42.3168 -41.5372 -40.9720 -11.0433 -10.7611 -10.2987 -10.1060
     1.3354   1.6481   2.0916   2.4440   2.7321   3.3620   3.9128   4.1975
     4.3770   4.8548   5.0032   5.4537   6.1702   6.8853   8.0751   9.7926
     9.8474  15.1028

          k = 0.2491-0.2997 0.0539 (  3925 PWs)   bands (ev):

   -72.8917 -42.3167 -41.5372 -40.9720 -11.1588 -10.6478 -10.3450 -10.0517
     1.4700   1.8419   2.1074   2.4644   2.6742   3.1212   3.7022   4.0275
     4.3771   4.8913   5.1125   5.5233   6.1405   6.9736   8.0238   9.6457
    10.1003  14.7071

          k = 0.2490-0.2991 0.2413 (  3915 PWs)   bands (ev):

   -72.8917 -42.3167 -41.5372 -40.9720 -11.2916 -10.4747 -10.4024 -10.0172
     1.3855   1.9720   2.2594   2.5068   2.6641   2.8954   3.5504   3.9322
     4.4802   4.9043   5.1536   5.5793   6.1006   7.0796   7.9301   9.6922
    10.0636  14.4855

          k = 0.2494-0.3009-0.3210 (  3914 PWs)   bands (ev):

   -72.8917 -42.3167 -41.5372 -40.9720 -11.2731 -10.6426 -10.2269 -10.0359
     1.6093   1.7808   1.9358   2.5591   2.7893   3.0544   3.5629   3.8835
     4.1460   5.0709   5.3429   5.5615   6.0943   6.9757   8.0258   9.7033
    10.1736  13.8587

          k = 0.2493-0.3003-0.1336 (  3920 PWs)   bands (ev):

   -72.8917 -42.3168 -41.5372 -40.9720 -11.0628 -10.8669 -10.1990 -10.0659
     1.5681   1.7153   1.9698   2.5619   2.7566   3.1024   3.5104   4.1680
     4.2863   4.8463   5.3076   5.5310   6.1428   6.8838   8.0891   9.8894
     9.9331  14.6240

          k = 0.2493-0.1803-0.0424 (  3913 PWs)   bands (ev):

   -72.8917 -42.3167 -41.5372 -40.9720 -11.2718 -10.6433 -10.2280 -10.0358
     1.6097   1.7818   1.9343   2.5645   2.7884   3.0493   3.5629   3.8844
     4.1478   5.0737   5.3368   5.5634   6.0957   6.9751   8.0249   9.7054
    10.1713  13.8590

          k = 0.2492-0.1797 0.1450 (  3921 PWs)   bands (ev):

   -72.8917 -42.3167 -41.5372 -40.9720 -11.2903 -10.4753 -10.4034 -10.0172
     1.3850   1.9714   2.2618   2.5104   2.6636   2.8933   3.5492   3.9331
     4.4792   4.9025   5.1561   5.5786   6.1008   7.0788   7.9302   9.6917
    10.0638  14.4906

          k = 0.2496-0.1815-0.4173 (  3925 PWs)   bands (ev):

   -72.8917 -42.3167 -41.5372 -40.9720 -11.1592 -10.6486 -10.3442 -10.0512
     1.4700   1.8429   2.1062   2.4667   2.6707   3.1246   3.6979   4.0304
     4.3766   4.8931   5.1120   5.5216   6.1384   6.9726   8.0250   9.6453
    10.1032  14.7022

          k = 0.2495-0.1809-0.2299 (  3914 PWs)   bands (ev):

   -72.8917 -42.3168 -41.5372 -40.9720 -11.0629 -10.8678 -10.1982 -10.0656
     1.5688   1.7142   1.9712   2.5637   2.7556   3.1016   3.5071   4.1692
     4.2867   4.8447   5.3114   5.5293   6.1415   6.8831   8.0899   9.8887
     9.9358  14.6232

          k =-0.4990 0.1219 0.2775 (  3922 PWs)   bands (ev):

   -72.8894 -42.3137 -41.5317 -41.0103 -10.6373 -10.4387 -10.2853 -10.1084
     0.7089   1.2100   1.8409   2.2750   2.5940   3.4971   3.8875   4.2557
     4.5376   4.7606   4.8014   5.3288   5.9672   6.7880   7.9198   9.9822
    10.0923  15.3022

          k =-0.4991 0.1225 0.4649 (  3918 PWs)   bands (ev):

   -72.8894 -42.3137 -41.5317 -41.0103 -10.6832 -10.4555 -10.2707 -10.0666
     0.9148   1.2317   1.9691   2.3769   2.6018   3.4240   3.6778   4.2183
     4.3910   4.5154   4.9086   5.1618   5.9636   6.9583   7.9048   9.7905
    10.0563  15.8381

          k =-0.4987 0.1207-0.0974 (  3936 PWs)   bands (ev):

   -72.8893 -42.3137 -41.5317 -41.0104 -10.7214 -10.4757 -10.2542 -10.0311
     1.0817   1.3470   2.2093   2.4416   2.6627   3.0971   3.4017   4.1412
     4.3427   4.4876   4.8909   5.0317   5.9542   7.0878   7.8938   9.5751
    10.0708  16.0843

          k =-0.4988 0.2413 0.1812 (  3934 PWs)   bands (ev):

   -72.8894 -42.3137 -41.5317 -41.0103 -10.6372 -10.4388 -10.2850 -10.1086
     0.7741   1.1126   1.8483   2.2710   2.5768   3.6523   3.8596   4.1902
     4.5301   4.7486   4.8115   5.3222   5.9659   6.7914   7.9135   9.9959
    10.0681  15.6180

          k =-0.4989 0.2419 0.3686 (  3923 PWs)   bands (ev):

   -72.8894 -42.3137 -41.5317 -41.0103 -10.6833 -10.4590 -10.2672 -10.0664
     0.9003   1.2688   1.9640   2.2336   2.8032   3.3397   3.6755   4.1973
     4.4009   4.5160   4.9229   5.1687   5.9617   6.9638   7.9043   9.7783
    10.0696  15.6274

          k =-0.4985 0.2400-0.1937 (  3915 PWs)   bands (ev):

   -72.8893 -42.3137 -41.5317 -41.0103 -10.7240 -10.4704 -10.2591 -10.0286
     1.0984   1.3143   2.1771   2.5301   2.6995   2.9965   3.4724   4.1192
     4.2727   4.4819   4.8713   5.0945   5.9583   7.0936   7.8938   9.5835
    10.0628  16.0381

          k =-0.4987 0.2406-0.0063 (  3927 PWs)   bands (ev):

   -72.8894 -42.3137 -41.5317 -41.0103 -10.6826 -10.4576 -10.2687 -10.0671
     0.8995   1.2691   1.9606   2.2333   2.8023   3.3410   3.6762   4.2024
     4.4042   4.5148   4.9235   5.1665   5.9622   6.9625   7.9033   9.7791
    10.0697  15.6205

          k =-0.4993-0.1168 0.4701 (  3928 PWs)   bands (ev):

   -72.8894 -42.3137 -41.5317 -41.0103 -10.6376 -10.4374 -10.2865 -10.1080
     0.7102   1.2099   1.8387   2.2690   2.5877   3.4986   3.8957   4.2614
     4.5427   4.7584   4.8022   5.3271   5.9676   6.7879   7.9175   9.9790
    10.0937  15.2960

          k =-0.4994-0.1162 0.6575 (  3915 PWs)   bands (ev):

   -72.8894 -42.3137 -41.5317 -41.0103 -10.6842 -10.4559 -10.2702 -10.0655
     0.9173   1.2308   1.9683   2.3746   2.5963   3.4244   3.6792   4.2216
     4.3895   4.5194   4.9089   5.1622   5.9634   6.9595   7.9037   9.7884
    10.0566  15.8462

          k =-0.4990-0.1181 0.0952 (  3928 PWs)   bands (ev):

   -72.8893 -42.3137 -41.5317 -41.0103 -10.7229 -10.4772 -10.2525 -10.0295
     1.0858   1.3468   2.2084   2.4383   2.6598   3.0968   3.4030   4.1385
     4.3434   4.4877   4.8948   5.0314   5.9537   7.0903   7.8936   9.5713
    10.0710  16.0854

     the Fermi energy is     7.0368 ev

!    total energy              =    -520.62067559 Ry
     total all-electron energy =     -3720.873934 Ry
     estimated scf accuracy    <       0.00000002 Ry
     smearing contrib. (-TS)   =      -0.00496023 Ry
     internal energy E=F+TS    =    -520.61571535 Ry

     The total energy is F=E-TS. E is the sum of the following terms:
     one-electron contribution =    -240.25723160 Ry
     hartree contribution      =     145.19322298 Ry
     xc contribution           =     -61.24690348 Ry
     ewald contribution        =    -185.80866961 Ry
     Hubbard energy            =       0.24468584 Ry
     one-center paw contrib.   =    -178.74081948 Ry

     convergence has been achieved in  13 iterations
     force_hub    :     98.88s CPU     14.68s WALL (       7 calls)
     dndtau       :     86.17s CPU     12.95s WALL (    5292 calls)
     dprojdtau    :     13.34s CPU      2.00s WALL (    5292 calls)
     calc_doverla :     45.98s CPU      6.96s WALL (    5292 calls)
     matel_dSdtau :     64.20s CPU      9.32s WALL (   10584 calls)

     Forces acting on atoms (cartesian axes, Ry/au):

     atom    1 type  1   force =     0.00078115    0.00210016   -0.00161247
     atom    2 type  1   force =     0.00009904   -0.00146821    0.00365753
     atom    3 type  3   force =    -0.00031691   -0.00128087   -0.00113726
     atom    4 type  2   force =    -0.00038160    0.00096045    0.00144007
     atom    5 type  2   force =     0.00019698   -0.00161206   -0.00363516
     atom    6 type  2   force =     0.00014200   -0.00000614    0.00076504
     atom    7 type  2   force =    -0.00052065    0.00130667    0.00052225

     Total force =     0.006932     Total SCF correction =     0.000220


     Computing stress (Cartesian axis) and pressure

     stres_hub    :    282.11s CPU     37.17s WALL (       7 calls)
     dprojdepsilo :    230.28s CPU     30.18s WALL (    2268 calls)
     dprojdeps1   :     24.66s CPU      3.37s WALL (    2268 calls)
     dprojdeps2   :    130.14s CPU     16.84s WALL (    2268 calls)
     dprojdeps3   :     75.39s CPU      9.96s WALL (    2268 calls)
          total   stress  (Ry/bohr**3)                   (kbar)     P=       -1.15
  -0.00002321  -0.00000247   0.00000280           -3.41       -0.36        0.41
  -0.00000247  -0.00000712   0.00000380           -0.36       -1.05        0.56
   0.00000280   0.00000380   0.00000684            0.41        0.56        1.01

     Energy error            =      1.9E-04 Ry
     Gradient error          =      3.7E-03 Ry/Bohr
     Cell gradient error     =      3.4E+00 kbar

     number of scf cycles    =   7
     number of bfgs steps    =   6

     enthalpy           old  =    -520.6204845208 Ry
     enthalpy           new  =    -520.6206755851 Ry

     CASE: enthalpy          _new < enthalpy          _old

     new trust radius        =       0.0073473630 bohr
     new conv_thr            =       0.0000000191 Ry

     new unit-cell volume =    487.73271 a.u.^3 (    72.27453 Ang^3 )
     density =      3.84940 g/cm^3

CELL_PARAMETERS (angstrom)
   2.961265051  -0.002892820   0.002750658
   1.495668682   6.180124840  -0.015462564
   2.961063533   3.175437594   3.942367196

ATOMIC_POSITIONS (angstrom)
Mg               3.4413275566        4.7930535607        1.4570916112
Mg               0.4772041291        1.1178103296        0.3332802622
Mn               4.9201293362        2.3301127774        2.5400095823
O                3.4535685671        6.9015152684        1.8155617128
O                4.9201285575        4.3125611389        2.8716504244
O                3.4406596468        2.7940804912        1.3686162618
O                4.9325637562        8.3999512239        3.8983485525



     Writing config-only to output data dir .\out\\qgan.save\ :
     XML data file
     NEW-OLD atomic charge density approx. for the potential
     New effective cutoffs (rho, wfc):  493.79   61.76

     Check: negative core charge=   -0.000002

     Atomic wfc used for Hubbard projectors are orthogonalized


     total cpu time spent up to now is      389.3 secs

     Self-consistent Calculation

     iteration #  1     ecut=    60.00 Ry     beta= 0.70
     Davidson diagonalization with overlap
     ethr =  1.00E-06,  avg # of iterations =  8.4

     =================== HUBBARD OCCUPATIONS ===================
     ------------------------ ATOM    3 ------------------------
     Tr[ns(  3)] =   5.23672
     eigenvalues:
       0.219  0.311  0.398  0.714  0.976
     eigenvectors (columns):
       0.539  0.001 -0.205  0.002 -0.817
      -0.001 -0.964  0.002  0.264 -0.002
      -0.802  0.001 -0.421 -0.001 -0.423
       0.258 -0.003 -0.884 -0.000  0.391
       0.002 -0.264  0.001 -0.964 -0.001
     occupation matrix ns (before diag.):
       0.732  0.001  0.277 -0.209  0.000
       0.001  0.339  0.000 -0.001 -0.103
       0.277  0.000  0.387 -0.059  0.001
      -0.209 -0.001 -0.059  0.475 -0.000
       0.000 -0.103  0.001 -0.000  0.686

     Number of occupied Hubbard levels =    5.2367

     Threshold (ethr) on eigenvalues was too large:
     Diagonalizing with lowered threshold

     Davidson diagonalization with overlap
     ethr =  6.05E-08,  avg # of iterations =  3.0

     total cpu time spent up to now is      396.2 secs

     total energy              =    -520.62072965 Ry
     estimated scf accuracy    <       0.00002686 Ry

     iteration #  2     ecut=    60.00 Ry     beta= 0.70
     Davidson diagonalization with overlap
     ethr =  6.25E-08,  avg # of iterations =  4.7

     total cpu time spent up to now is      398.8 secs

     total energy              =    -520.62072523 Ry
     estimated scf accuracy    <       0.00006050 Ry

     iteration #  3     ecut=    60.00 Ry     beta= 0.70
     Davidson diagonalization with overlap
     ethr =  6.25E-08,  avg # of iterations =  2.4

     total cpu time spent up to now is      401.1 secs

     total energy              =    -520.62073373 Ry
     estimated scf accuracy    <       0.00001660 Ry

     iteration #  4     ecut=    60.00 Ry     beta= 0.70
     Davidson diagonalization with overlap
     ethr =  3.86E-08,  avg # of iterations =  3.1

     total cpu time spent up to now is      403.3 secs

     total energy              =    -520.62073647 Ry
     estimated scf accuracy    <       0.00003178 Ry

     iteration #  5     ecut=    60.00 Ry     beta= 0.70
     Davidson diagonalization with overlap
     ethr =  3.86E-08,  avg # of iterations =  1.4

     total cpu time spent up to now is      405.5 secs

     total energy              =    -520.62073942 Ry
     estimated scf accuracy    <       0.00000120 Ry

     iteration #  6     ecut=    60.00 Ry     beta= 0.70
     Davidson diagonalization with overlap
     ethr =  2.79E-09,  avg # of iterations =  4.6

     total cpu time spent up to now is      408.3 secs

     total energy              =    -520.62074010 Ry
     estimated scf accuracy    <       0.00000059 Ry

     iteration #  7     ecut=    60.00 Ry     beta= 0.70
     Davidson diagonalization with overlap
     ethr =  1.37E-09,  avg # of iterations =  2.3

     total cpu time spent up to now is      410.5 secs

     total energy              =    -520.62074020 Ry
     estimated scf accuracy    <       0.00000008 Ry

     iteration #  8     ecut=    60.00 Ry     beta= 0.70
     Davidson diagonalization with overlap
     ethr =  1.95E-10,  avg # of iterations = 10.8

     total cpu time spent up to now is      414.8 secs

     total energy              =    -520.62074035 Ry
     estimated scf accuracy    <       0.00000008 Ry

     iteration #  9     ecut=    60.00 Ry     beta= 0.70
     Davidson diagonalization with overlap
     ethr =  1.86E-10,  avg # of iterations =  1.7

     total cpu time spent up to now is      417.0 secs

     total energy              =    -520.62074036 Ry
     estimated scf accuracy    <       0.00000004 Ry

     iteration # 10     ecut=    60.00 Ry     beta= 0.70
     Davidson diagonalization with overlap
     ethr =  9.91E-11,  avg # of iterations =  6.7

     total cpu time spent up to now is      420.0 secs

     total energy              =    -520.62074041 Ry
     estimated scf accuracy    <       0.00000002 Ry

     iteration # 11     ecut=    60.00 Ry     beta= 0.70
     Davidson diagonalization with overlap
     ethr =  4.58E-11,  avg # of iterations =  4.7

     total cpu time spent up to now is      422.7 secs

     End of self-consistent calculation

     =================== HUBBARD OCCUPATIONS ===================
     ------------------------ ATOM    3 ------------------------
     Tr[ns(  3)] =   5.23680
     eigenvalues:
       0.219  0.311  0.398  0.714  0.976
     eigenvectors (columns):
       0.540  0.001 -0.205  0.001 -0.816
      -0.001 -0.964  0.002  0.265 -0.002
      -0.802  0.001 -0.421 -0.001 -0.424
       0.257 -0.003 -0.884 -0.000  0.392
       0.001 -0.265  0.001 -0.964 -0.001
     occupation matrix ns (before diag.):
       0.731  0.001  0.277 -0.209  0.000
       0.001  0.340  0.000 -0.001 -0.103
       0.277  0.000  0.387 -0.059  0.001
      -0.209 -0.001 -0.059  0.475 -0.000
       0.000 -0.103  0.001 -0.000  0.685

     Number of occupied Hubbard levels =    5.2368

          k = 0.0000 0.0000 0.0000 (  3893 PWs)   bands (ev):

   -72.8894 -42.3161 -41.5367 -40.9277 -11.8807 -10.5515 -10.2836 -10.0615
     0.8177   1.4991   2.2326   2.6998   3.0689   3.9246   4.1045   4.3670
     4.6225   5.4082   5.6217   5.6661   6.0548   7.1361   7.9996  10.0673
    10.3404  11.7239

          k =-0.0002 0.0005 0.1873 (  3895 PWs)   bands (ev):

   -72.8893 -42.3162 -41.5367 -40.9277 -11.6851 -10.7069 -10.3517 -10.1004
     1.0124   1.7953   1.9833   3.0709   3.0805   3.8859   4.0247   4.4782
     4.5970   4.9534   5.5673   5.5913   5.7596   7.0933   8.1000   9.7788
    10.3824  12.8394

          k = 0.0003-0.0010-0.3746 (  3894 PWs)   bands (ev):

   -72.8892 -42.3162 -41.5367 -40.9277 -11.3581 -10.9791 -10.4213 -10.1539
     1.2734   1.8204   2.5090   3.0140   3.0674   3.4944   3.8793   4.5427
     4.5686   4.8367   5.4719   5.5123   5.6283   7.0497   8.1813   9.5390
    10.4252  14.4470

          k = 0.0002 0.1194-0.0963 (  3889 PWs)   bands (ev):

   -72.8894 -42.3161 -41.5367 -40.9277 -11.7762 -10.5791 -10.4187 -10.0446
     1.0392   1.5158   2.1918   2.8004   3.1040   3.9459   4.1112   4.3136
     4.6853   5.0184   5.4798   5.6184   6.0624   7.1600   7.9921  10.1304
    10.3807  12.5148

          k = 0.0000 0.1199 0.0910 (  3904 PWs)   bands (ev):

   -72.8894 -42.3162 -41.5367 -40.9277 -11.7287 -10.7898 -10.2453 -10.0544
     0.9491   1.7990   2.0981   2.8966   3.0366   3.8070   3.9248   4.4830
     4.6199   5.2116   5.5729   5.5821   5.8319   7.1301   8.0965   9.7818
    10.3413  12.4890

          k = 0.0006 0.1184-0.4709 (  3922 PWs)   bands (ev):

   -72.8893 -42.3162 -41.5367 -40.9278 -11.4058 -11.0613 -10.3226 -10.0956
     1.3068   1.6507   2.4212   3.0356   3.1587   3.5116   3.9068   4.3381
     4.5863   5.0752   5.4327   5.4896   5.6739   7.0859   8.1981   9.5455
    10.3840  13.8524

          k = 0.0004 0.1189-0.2836 (  3906 PWs)   bands (ev):

   -72.8893 -42.3162 -41.5368 -40.9277 -11.5335 -10.7860 -10.4815 -10.0847
     1.2353   1.7887   2.2184   2.9712   3.1039   3.8314   3.9037   4.4329
     4.5008   4.8997   5.4381   5.5389   5.7695   7.1200   8.1194   9.8558
    10.4225  14.0842

          k =-0.0004-0.2388 0.1926 (  3908 PWs)   bands (ev):

   -72.8893 -42.3161 -41.5368 -40.9277 -11.6431 -10.6773 -10.5075 -10.0309
     1.0181   1.8574   2.3970   2.8304   3.1415   3.6036   3.9711   4.2552
     4.5705   4.9902   5.4690   5.5699   6.0673   7.1839   7.9831  10.1980
    10.4204  13.8282

          k =-0.0006-0.2382 0.3799 (  3906 PWs)   bands (ev):

   -72.8893 -42.3162 -41.5367 -40.9277 -11.5904 -10.8598 -10.3688 -10.0413
     1.3335   1.7521   1.9990   2.9128   3.0673   3.8012   3.9468   4.4362
     4.7402   4.8773   5.4259   5.5215   5.8037   7.1551   8.1256   9.8637
    10.3816  13.4146

          k =-0.0001-0.2398-0.1820 (  3902 PWs)   bands (ev):

   -72.8894 -42.3162 -41.5367 -40.9277 -11.4457 -11.1331 -10.2281 -10.0513
     1.1519   1.8255   2.3052   3.0055   3.0363   3.7135   3.9362   4.1031
     4.5971   5.1786   5.4731   5.5541   5.7215   7.1204   8.1650   9.5319
    10.3427  13.7623

          k = 0.2498-0.0608-0.1387 (  3913 PWs)   bands (ev):

   -72.8865 -42.3131 -41.5311 -40.9669 -11.3236 -10.5797 -10.2147 -10.0403
     1.4060   1.6761   2.1261   2.4341   2.7741   3.0207   3.8353   4.0080
     4.2817   5.0122   5.2905   5.5090   6.1127   6.9776   8.0205   9.6874
    10.0979  13.9337

          k = 0.2496-0.0603 0.0487 (  3893 PWs)   bands (ev):

   -72.8865 -42.3131 -41.5311 -40.9669 -11.4216 -10.4522 -10.2618 -10.0069
     1.4242   1.8128   2.0503   2.4434   2.8273   2.8653   3.7115   3.9859
     4.2913   5.0281   5.3755   5.5566   6.0397   7.0675   7.9494   9.7532
    10.0734  13.5843

          k = 0.2502-0.0618-0.5133 (  3920 PWs)   bands (ev):

   -72.8865 -42.3131 -41.5311 -40.9669 -11.2282 -10.5485 -10.3453 -10.0610
     1.3263   1.6848   2.1957   2.5545   2.6742   3.0128   3.9963   4.1253
     4.3870   4.9159   5.0565   5.4740   6.1553   6.9679   8.0158   9.6413
    10.0287  14.7076

          k = 0.2500-0.0613-0.3260 (  3917 PWs)   bands (ev):

   -72.8865 -42.3132 -41.5311 -40.9669 -11.0458 -10.7589 -10.2947 -10.1002
     1.3394   1.6524   2.0892   2.4448   2.7341   3.3590   3.9162   4.2040
     4.3849   4.8520   5.0022   5.4599   6.1771   6.8909   8.0831   9.8010
     9.8580  15.1033

          k = 0.2500 0.0586-0.2350 (  3918 PWs)   bands (ev):

   -72.8865 -42.3131 -41.5311 -40.9669 -11.2293 -10.5481 -10.3442 -10.0612
     1.3260   1.6858   2.1962   2.5523   2.6749   3.0114   3.9935   4.1249
     4.3890   4.9185   5.0547   5.4749   6.1559   6.9693   8.0153   9.6428
    10.0268  14.7041

          k = 0.2498 0.0591-0.0477 (  3898 PWs)   bands (ev):

   -72.8865 -42.3131 -41.5311 -40.9669 -11.4224 -10.4521 -10.2609 -10.0069
     1.4240   1.8123   2.0506   2.4425   2.8232   2.8695   3.7109   3.9845
     4.2936   5.0248   5.3792   5.5571   6.0383   7.0681   7.9494   9.7531
    10.0737  13.5823

          k = 0.2504 0.0576-0.6096 (  3911 PWs)   bands (ev):

   -72.8865 -42.3131 -41.5311 -40.9669 -11.3234 -10.5790 -10.2155 -10.0405
     1.4047   1.6770   2.1258   2.4325   2.7781   3.0186   3.8360   4.0095
     4.2824   5.0099   5.2893   5.5102   6.1134   6.9779   8.0204   9.6845
    10.0992  13.9371

          k = 0.2502 0.0581-0.4223 (  3915 PWs)   bands (ev):

   -72.8865 -42.3132 -41.5311 -40.9669 -11.0457 -10.7582 -10.2953 -10.1006
     1.3392   1.6520   2.0889   2.4441   2.7344   3.3614   3.9184   4.2034
     4.3817   4.8513   5.0035   5.4607   6.1779   6.8914   8.0822   9.8015
     9.8560  15.1053

          k = 0.2494-0.2996 0.0540 (  3925 PWs)   bands (ev):

   -72.8865 -42.3131 -41.5312 -40.9669 -11.1583 -10.6475 -10.3422 -10.0459
     1.4723   1.8455   2.1043   2.4676   2.6733   3.1223   3.7081   4.0355
     4.3768   4.8914   5.1134   5.5299   6.1483   6.9791   8.0299   9.6562
    10.1092  14.7124

          k = 0.2492-0.2990 0.2413 (  3915 PWs)   bands (ev):

   -72.8865 -42.3131 -41.5311 -40.9669 -11.2899 -10.4736 -10.4022 -10.0110
     1.3872   1.9718   2.2583   2.5096   2.6640   2.8962   3.5554   3.9450
     4.4760   4.9044   5.1585   5.5866   6.1077   7.0844   7.9359   9.7015
    10.0739  14.4926

          k = 0.2497-0.3006-0.3207 (  3914 PWs)   bands (ev):

   -72.8865 -42.3131 -41.5311 -40.9669 -11.2718 -10.6429 -10.2255 -10.0291
     1.6115   1.7821   1.9383   2.5583   2.7893   3.0544   3.5691   3.8869
     4.1506   5.0723   5.3435   5.5691   6.1013   6.9823   8.0316   9.7122
    10.1821  13.8627

          k = 0.2496-0.3001-0.1334 (  3920 PWs)   bands (ev):

   -72.8865 -42.3132 -41.5311 -40.9669 -11.0645 -10.8645 -10.1966 -10.0596
     1.5705   1.7197   1.9708   2.5628   2.7542   3.1055   3.5130   4.1729
     4.2910   4.8412   5.3098   5.5403   6.1493   6.8908   8.0956   9.8986
     9.9406  14.6239

          k = 0.2496-0.1802-0.0423 (  3913 PWs)   bands (ev):

   -72.8865 -42.3131 -41.5311 -40.9669 -11.2707 -10.6435 -10.2262 -10.0291
     1.6119   1.7830   1.9372   2.5627   2.7883   3.0502   3.5690   3.8878
     4.1521   5.0743   5.3387   5.5704   6.1026   6.9818   8.0309   9.7146
    10.1795  13.8629

          k = 0.2494-0.1797 0.1450 (  3921 PWs)   bands (ev):

   -72.8865 -42.3131 -41.5311 -40.9669 -11.2889 -10.4742 -10.4029 -10.0110
     1.3867   1.9712   2.2601   2.5128   2.6635   2.8945   3.5541   3.9457
     4.4750   4.9032   5.1606   5.5860   6.1078   7.0836   7.9359   9.7011
    10.0741  14.4967

          k = 0.2500-0.1812-0.4170 (  3925 PWs)   bands (ev):

   -72.8865 -42.3131 -41.5311 -40.9669 -11.1586 -10.6480 -10.3416 -10.0455
     1.4723   1.8463   2.1034   2.4695   2.6705   3.1251   3.7044   4.0381
     4.3764   4.8927   5.1132   5.5288   6.1464   6.9782   8.0309   9.6552
    10.1123  14.7086

          k = 0.2498-0.1807-0.2297 (  3914 PWs)   bands (ev):

   -72.8865 -42.3132 -41.5311 -40.9669 -11.0645 -10.8653 -10.1959 -10.0595
     1.5713   1.7188   1.9719   2.5645   2.7533   3.1047   3.5104   4.1738
     4.2916   4.8399   5.3128   5.5389   6.1482   6.8902   8.0963   9.8976
     9.9434  14.6233

          k =-0.4996 0.1216 0.2773 (  3922 PWs)   bands (ev):

   -72.8841 -42.3101 -41.5255 -41.0058 -10.6358 -10.4356 -10.2905 -10.0923
     0.7125   1.2107   1.8399   2.2762   2.5958   3.4935   3.8896   4.2605
     4.5444   4.7562   4.8033   5.3314   5.9785   6.7942   7.9268   9.9911
    10.1007  15.3018

          k =-0.4998 0.1221 0.4646 (  3918 PWs)   bands (ev):

   -72.8841 -42.3101 -41.5255 -41.0058 -10.6801 -10.4533 -10.2752 -10.0519
     0.9165   1.2299   1.9691   2.3800   2.6027   3.4220   3.6774   4.2231
     4.3983   4.5156   4.9104   5.1644   5.9750   6.9628   7.9118   9.7992
    10.0662  15.8383

          k =-0.4993 0.1206-0.0973 (  3936 PWs)   bands (ev):

   -72.8841 -42.3101 -41.5255 -41.0058 -10.7172 -10.4738 -10.2585 -10.0173
     1.0800   1.3441   2.2073   2.4469   2.6623   3.1032   3.3996   4.1434
     4.3510   4.4890   4.8960   5.0320   5.9657   7.0915   7.9008   9.5845
    10.0811  16.0874

          k =-0.4994 0.2410 0.1810 (  3934 PWs)   bands (ev):

   -72.8841 -42.3101 -41.5255 -41.0058 -10.6358 -10.4359 -10.2902 -10.0924
     0.7783   1.1124   1.8472   2.2733   2.5793   3.6474   3.8608   4.1936
     4.5367   4.7454   4.8138   5.3254   5.9772   6.7975   7.9207  10.0038
    10.0774  15.6117

          k =-0.4996 0.2415 0.3683 (  3923 PWs)   bands (ev):

   -72.8841 -42.3101 -41.5255 -41.0058 -10.6801 -10.4564 -10.2721 -10.0518
     0.9015   1.2675   1.9632   2.2367   2.8038   3.3399   3.6750   4.2038
     4.4054   4.5165   4.9233   5.1724   5.9731   6.9683   7.9113   9.7877
    10.0791  15.6305

          k =-0.4991 0.2400-0.1936 (  3915 PWs)   bands (ev):

   -72.8841 -42.3101 -41.5255 -41.0058 -10.7197 -10.4684 -10.2633 -10.0152
     1.0963   1.3115   2.1767   2.5345   2.6996   2.9997   3.4721   4.1199
     4.2824   4.4836   4.8750   5.0959   5.9699   7.0969   7.9008   9.5931
    10.0732  16.0435

          k =-0.4993 0.2405-0.0063 (  3927 PWs)   bands (ev):

   -72.8841 -42.3101 -41.5255 -41.0058 -10.6795 -10.4554 -10.2732 -10.0523
     0.9010   1.2677   1.9603   2.2366   2.8030   3.3410   3.6757   4.2080
     4.4080   4.5157   4.9236   5.1708   5.9735   6.9672   7.9106   9.7879
    10.0795  15.6244

          k =-0.5000-0.1171 0.4699 (  3928 PWs)   bands (ev):

   -72.8841 -42.3101 -41.5255 -41.0058 -10.6361 -10.4347 -10.2914 -10.0919
     0.7136   1.2104   1.8382   2.2712   2.5904   3.4950   3.8964   4.2649
     4.5483   4.7544   4.8041   5.3302   5.9788   6.7943   7.9249   9.9876
    10.1026  15.2962

          k =-0.5002-0.1166 0.6572 (  3915 PWs)   bands (ev):

   -72.8841 -42.3101 -41.5255 -41.0058 -10.6809 -10.4536 -10.2748 -10.0510
     0.9187   1.2292   1.9684   2.3779   2.5979   3.4227   3.6787   4.2255
     4.3970   4.5188   4.9105   5.1650   5.9749   6.9639   7.9109   9.7974
    10.0665  15.8445

          k =-0.4997-0.1182 0.0953 (  3928 PWs)   bands (ev):

   -72.8841 -42.3101 -41.5255 -41.0058 -10.7184 -10.4749 -10.2572 -10.0160
     1.0835   1.3439   2.2065   2.4440   2.6597   3.1031   3.4007   4.1409
     4.3516   4.4890   4.8994   5.0319   5.9653   7.0936   7.9005   9.5815
    10.0811  16.0891

     the Fermi energy is     7.0435 ev

!    total energy              =    -520.62074045 Ry
     total all-electron energy =     -3720.873999 Ry
     estimated scf accuracy    <       0.00000001 Ry
     smearing contrib. (-TS)   =      -0.00493250 Ry
     internal energy E=F+TS    =    -520.61580795 Ry

     The total energy is F=E-TS. E is the sum of the following terms:
     one-electron contribution =    -240.43219953 Ry
     hartree contribution      =     145.28675439 Ry
     xc contribution           =     -61.24876448 Ry
     ewald contribution        =    -185.72551145 Ry
     Hubbard energy            =       0.24469163 Ry
     one-center paw contrib.   =    -178.74077852 Ry

     convergence has been achieved in  11 iterations
     force_hub    :    112.08s CPU     16.72s WALL (       8 calls)
     dndtau       :     97.62s CPU     14.75s WALL (    6048 calls)
     dprojdtau    :     15.05s CPU      2.28s WALL (    6048 calls)
     calc_doverla :     52.12s CPU      7.90s WALL (    6048 calls)
     matel_dSdtau :     72.55s CPU     10.64s WALL (   12096 calls)

     Forces acting on atoms (cartesian axes, Ry/au):

     atom    1 type  1   force =     0.00061874    0.00109811   -0.00045738
     atom    2 type  1   force =     0.00008669   -0.00175608    0.00168407
     atom    3 type  3   force =    -0.00032725   -0.00058854    0.00019342
     atom    4 type  2   force =    -0.00037020    0.00045183    0.00082792
     atom    5 type  2   force =     0.00023768   -0.00158564   -0.00207570
     atom    6 type  2   force =     0.00017350    0.00132333   -0.00002691
     atom    7 type  2   force =    -0.00041915    0.00105699   -0.00014543

     Total force =     0.004384     Total SCF correction =     0.000061


     Computing stress (Cartesian axis) and pressure

     stres_hub    :    323.16s CPU     42.46s WALL (       8 calls)
     dprojdepsilo :    263.89s CPU     34.47s WALL (    2592 calls)
     dprojdeps1   :     28.14s CPU      3.83s WALL (    2592 calls)
     dprojdeps2   :    150.56s CPU     19.24s WALL (    2592 calls)
     dprojdeps3   :     85.08s CPU     11.38s WALL (    2592 calls)
          total   stress  (Ry/bohr**3)                   (kbar)     P=       -0.55
  -0.00000200  -0.00000160   0.00000168           -0.29       -0.24        0.25
  -0.00000160  -0.00000375   0.00000088           -0.24       -0.55        0.13
   0.00000168   0.00000088  -0.00000555            0.25        0.13       -0.82

     Energy error            =      6.5E-05 Ry
     Gradient error          =      2.1E-03 Ry/Bohr
     Cell gradient error     =      8.2E-01 kbar

     number of scf cycles    =   8
     number of bfgs steps    =   7

     enthalpy           old  =    -520.6206755851 Ry
     enthalpy           new  =    -520.6207404513 Ry

     CASE: enthalpy          _new < enthalpy          _old

     new trust radius        =       0.0057505316 bohr
     new conv_thr            =       0.0000000100 Ry

     new unit-cell volume =    487.57841 a.u.^3 (    72.25167 Ang^3 )
     density =      3.85062 g/cm^3

CELL_PARAMETERS (angstrom)
   2.959586937  -0.003207933   0.003076408
   1.494146027   6.180451824  -0.013653783
   2.959486059   3.176426174   3.944215087

ATOMIC_POSITIONS (angstrom)
Mg               3.4397733413        4.7950321982        1.4579041427
Mg               0.4769425143        1.1164534864        0.3361725636
Mn               4.9170544255        2.3303715637        2.5413106059
O                3.4506566814        6.9022774204        1.8190638119
O                4.9174361417        4.3116903164        2.8711705018
O                3.4387132256        2.7945052045        1.3701410574
O                4.9287825804        8.4022725510        3.9022279859



     Writing config-only to output data dir .\out\\qgan.save\ :
     XML data file
     NEW-OLD atomic charge density approx. for the potential
     New effective cutoffs (rho, wfc):  493.46   61.72

     Check: negative core charge=   -0.000002

     Atomic wfc used for Hubbard projectors are orthogonalized


     total cpu time spent up to now is      433.0 secs

     Self-consistent Calculation

     iteration #  1     ecut=    60.00 Ry     beta= 0.70
     Davidson diagonalization with overlap
     ethr =  1.00E-06,  avg # of iterations =  5.3

     =================== HUBBARD OCCUPATIONS ===================
     ------------------------ ATOM    3 ------------------------
     Tr[ns(  3)] =   5.23677
     eigenvalues:
       0.219  0.312  0.399  0.713  0.975
     eigenvectors (columns):
       0.540  0.001 -0.206  0.001 -0.816
      -0.001 -0.964  0.002  0.265 -0.002
      -0.802  0.001 -0.420 -0.001 -0.424
       0.256 -0.003 -0.884 -0.001  0.392
       0.001 -0.265  0.001 -0.964 -0.001
     occupation matrix ns (before diag.):
       0.731  0.001  0.277 -0.209  0.000
       0.001  0.340  0.000 -0.001 -0.103
       0.277  0.000  0.387 -0.059  0.001
      -0.209 -0.001 -0.059  0.475 -0.000
       0.000 -0.103  0.001 -0.000  0.685

     Number of occupied Hubbard levels =    5.2368

     Threshold (ethr) on eigenvalues was too large:
     Diagonalizing with lowered threshold

     Davidson diagonalization with overlap
     ethr =  1.72E-08,  avg # of iterations =  4.7

     total cpu time spent up to now is      439.1 secs

     total energy              =    -520.62076252 Ry
     estimated scf accuracy    <       0.00000897 Ry

     iteration #  2     ecut=    60.00 Ry     beta= 0.70
     Davidson diagonalization with overlap
     ethr =  2.09E-08,  avg # of iterations =  3.8

     total cpu time spent up to now is      441.7 secs

     total energy              =    -520.62076240 Ry
     estimated scf accuracy    <       0.00001021 Ry

     iteration #  3     ecut=    60.00 Ry     beta= 0.70
     Davidson diagonalization with overlap
     ethr =  2.09E-08,  avg # of iterations =  2.0

     total cpu time spent up to now is      444.0 secs

     total energy              =    -520.62076502 Ry
     estimated scf accuracy    <       0.00000241 Ry

     iteration #  4     ecut=    60.00 Ry     beta= 0.70
     Davidson diagonalization with overlap
     ethr =  5.60E-09,  avg # of iterations =  3.0

     total cpu time spent up to now is      446.2 secs

     total energy              =    -520.62076540 Ry
     estimated scf accuracy    <       0.00000185 Ry

     iteration #  5     ecut=    60.00 Ry     beta= 0.70
     Davidson diagonalization with overlap
     ethr =  4.30E-09,  avg # of iterations =  1.6

     total cpu time spent up to now is      448.3 secs

     total energy              =    -520.62076565 Ry
     estimated scf accuracy    <       0.00000066 Ry

     iteration #  6     ecut=    60.00 Ry     beta= 0.70
     Davidson diagonalization with overlap
     ethr =  1.52E-09,  avg # of iterations =  2.3

     total cpu time spent up to now is      450.7 secs

     total energy              =    -520.62076578 Ry
     estimated scf accuracy    <       0.00000004 Ry

     iteration #  7     ecut=    60.00 Ry     beta= 0.70
     Davidson diagonalization with overlap
     ethr =  9.52E-11,  avg # of iterations = 12.8

     total cpu time spent up to now is      455.6 secs

     total energy              =    -520.62076587 Ry
     estimated scf accuracy    <       0.00000002 Ry

     iteration #  8     ecut=    60.00 Ry     beta= 0.70
     Davidson diagonalization with overlap
     ethr =  5.49E-11,  avg # of iterations =  2.4

     total cpu time spent up to now is      457.9 secs

     End of self-consistent calculation

     =================== HUBBARD OCCUPATIONS ===================
     ------------------------ ATOM    3 ------------------------
     Tr[ns(  3)] =   5.23677
     eigenvalues:
       0.219  0.312  0.399  0.713  0.975
     eigenvectors (columns):
       0.540  0.001 -0.206  0.001 -0.816
      -0.001 -0.964  0.002  0.265 -0.002
      -0.802  0.001 -0.420 -0.001 -0.425
       0.255 -0.003 -0.884 -0.001  0.392
       0.001 -0.265  0.001 -0.964 -0.001
     occupation matrix ns (before diag.):
       0.731  0.001  0.278 -0.209  0.000
       0.001  0.340  0.000 -0.001 -0.103
       0.278  0.000  0.387 -0.059  0.001
      -0.209 -0.001 -0.059  0.476 -0.000
       0.000 -0.103  0.001 -0.000  0.685

     Number of occupied Hubbard levels =    5.2368

          k = 0.0000 0.0000 0.0000 (  3893 PWs)   bands (ev):

   -72.8851 -42.3126 -41.5321 -40.9233 -11.8804 -10.5533 -10.2818 -10.0548
     0.8169   1.5006   2.2324   2.7028   3.0717   3.9298   4.1032   4.3719
     4.6211   5.4132   5.6275   5.6787   6.0601   7.1422   8.0041  10.0742
    10.3465  11.7299

          k =-0.0002 0.0005 0.1873 (  3895 PWs)   bands (ev):

   -72.8851 -42.3127 -41.5321 -40.9233 -11.6851 -10.7083 -10.3492 -10.0944
     1.0119   1.7965   1.9838   3.0736   3.0820   3.8913   4.0245   4.4829
     4.5949   4.9575   5.5744   5.6042   5.7649   7.0994   8.1049   9.7854
    10.3884  12.8455

          k = 0.0004-0.0009-0.3746 (  3894 PWs)   bands (ev):

   -72.8850 -42.3127 -41.5322 -40.9233 -11.3587 -10.9799 -10.4181 -10.1486
     1.2725   1.8213   2.5102   3.0167   3.0700   3.4935   3.8846   4.5425
     4.5729   4.8381   5.4788   5.5255   5.6343   7.0558   8.1868   9.5450
    10.4310  14.4548

          k = 0.0002 0.1194-0.0963 (  3889 PWs)   bands (ev):

   -72.8851 -42.3126 -41.5321 -40.9233 -11.7759 -10.5798 -10.4178 -10.0380
     1.0392   1.5168   2.1920   2.8014   3.1066   3.9512   4.1113   4.3186
     4.6858   5.0210   5.4866   5.6309   6.0672   7.1662   7.9964  10.1375
    10.3866  12.5203

          k = 0.0000 0.1199 0.0910 (  3904 PWs)   bands (ev):

   -72.8851 -42.3127 -41.5321 -40.9233 -11.7286 -10.7910 -10.2423 -10.0491
     0.9486   1.7983   2.1007   2.8981   3.0393   3.8075   3.9300   4.4878
     4.6176   5.2185   5.5843   5.5870   5.8370   7.1363   8.1009   9.7891
    10.3475  12.4948

          k = 0.0006 0.1185-0.4709 (  3922 PWs)   bands (ev):

   -72.8851 -42.3127 -41.5321 -40.9233 -11.4062 -11.0621 -10.3190 -10.0910
     1.3065   1.6505   2.4219   3.0383   3.1617   3.5119   3.9120   4.3390
     4.5908   5.0767   5.4381   5.5025   5.6793   7.0921   8.2030   9.5527
    10.3900  13.8597

          k = 0.0004 0.1189-0.2836 (  3906 PWs)   bands (ev):

   -72.8850 -42.3127 -41.5322 -40.9233 -11.5336 -10.7867 -10.4798 -10.0788
     1.2351   1.7899   2.2182   2.9725   3.1065   3.8326   3.9091   4.4375
     4.5008   4.9009   5.4453   5.5518   5.7746   7.1263   8.1243   9.8624
    10.4283  14.0904

          k =-0.0005-0.2388 0.1926 (  3908 PWs)   bands (ev):

   -72.8851 -42.3126 -41.5322 -40.9233 -11.6428 -10.6754 -10.5093 -10.0243
     1.0190   1.8569   2.3978   2.8303   3.1440   3.6053   3.9766   4.2600
     4.5717   4.9927   5.4757   5.5823   6.0712   7.1904   7.9875  10.2052
    10.4262  13.8340

          k =-0.0007-0.2383 0.3799 (  3906 PWs)   bands (ev):

   -72.8851 -42.3127 -41.5321 -40.9233 -11.5902 -10.8609 -10.3662 -10.0360
     1.3334   1.7522   1.9997   2.9131   3.0700   3.8038   3.9520   4.4410
     4.7412   4.8791   5.4313   5.5340   5.8084   7.1615   8.1301   9.8711
    10.3876  13.4201

          k =-0.0001-0.2397-0.1819 (  3902 PWs)   bands (ev):

   -72.8851 -42.3127 -41.5321 -40.9233 -11.4460 -11.1337 -10.2242 -10.0472
     1.1519   1.8241   2.3061   3.0083   3.0394   3.7154   3.9412   4.1039
     4.6018   5.1810   5.4857   5.5572   5.7272   7.1268   8.1695   9.5398
    10.3489  13.7682

          k = 0.2500-0.0607-0.1386 (  3913 PWs)   bands (ev):

   -72.8822 -42.3096 -41.5265 -40.9627 -11.3228 -10.5803 -10.2131 -10.0327
     1.4058   1.6788   2.1264   2.4355   2.7748   3.0220   3.8413   4.0102
     4.2860   5.0121   5.2955   5.5165   6.1180   6.9832   8.0259   9.6941
    10.1050  13.9383

          k = 0.2498-0.0603 0.0486 (  3893 PWs)   bands (ev):

   -72.8822 -42.3096 -41.5265 -40.9627 -11.4207 -10.4532 -10.2600  -9.9992
     1.4241   1.8146   2.0511   2.4439   2.8288   2.8656   3.7140   3.9954
     4.2919   5.0306   5.3794   5.5646   6.0449   7.0727   7.9546   9.7599
    10.0810  13.5890

          k = 0.2504-0.0617-0.5132 (  3920 PWs)   bands (ev):

   -72.8822 -42.3096 -41.5265 -40.9627 -11.2278 -10.5489 -10.3433 -10.0536
     1.3266   1.6866   2.1974   2.5553   2.6755   3.0134   4.0028   4.1292
     4.3880   4.9197   5.0571   5.4823   6.1610   6.9731   8.0216   9.6485
    10.0360  14.7124

          k = 0.2502-0.0612-0.3259 (  3917 PWs)   bands (ev):

   -72.8822 -42.3096 -41.5265 -40.9627 -11.0459 -10.7588 -10.2925 -10.0931
     1.3400   1.6541   2.0908   2.4465   2.7359   3.3590   3.9211   4.2082
     4.3888   4.8532   5.0030   5.4677   6.1829   6.8964   8.0889   9.8085
     9.8648  15.1051

          k = 0.2502 0.0587-0.2350 (  3918 PWs)   bands (ev):

   -72.8822 -42.3096 -41.5265 -40.9627 -11.2287 -10.5487 -10.3423 -10.0538
     1.3266   1.6874   2.1978   2.5531   2.6761   3.0125   4.0002   4.1290
     4.3898   4.9220   5.0554   5.4829   6.1616   6.9745   8.0211   9.6499
    10.0341  14.7094

          k = 0.2500 0.0591-0.0477 (  3898 PWs)   bands (ev):

   -72.8822 -42.3096 -41.5265 -40.9627 -11.4213 -10.4531 -10.2593  -9.9992
     1.4241   1.8141   2.0513   2.4432   2.8250   2.8695   3.7135   3.9942
     4.2939   5.0278   5.3826   5.5652   6.0437   7.0733   7.9546   9.7598
    10.0811  13.5875

          k = 0.2506 0.0577-0.6095 (  3911 PWs)   bands (ev):

   -72.8822 -42.3096 -41.5265 -40.9627 -11.3227 -10.5797 -10.2137 -10.0328
     1.4046   1.6795   2.1261   2.4342   2.7785   3.0200   3.8421   4.0115
     4.2865   5.0103   5.2944   5.5177   6.1187   6.9833   8.0259   9.6916
    10.1064  13.9412

          k = 0.2504 0.0582-0.4222 (  3915 PWs)   bands (ev):

   -72.8822 -42.3096 -41.5265 -40.9627 -11.0459 -10.7581 -10.2930 -10.0935
     1.3398   1.6537   2.0905   2.4460   2.7361   3.3610   3.9230   4.2075
     4.3860   4.8527   5.0040   5.4684   6.1836   6.8969   8.0882   9.8090
     9.8629  15.1066

          k = 0.2495-0.2995 0.0540 (  3925 PWs)   bands (ev):

   -72.8822 -42.3096 -41.5265 -40.9627 -11.1577 -10.6476 -10.3404 -10.0389
     1.4734   1.8469   2.1052   2.4693   2.6746   3.1232   3.7112   4.0404
     4.3796   4.8950   5.1148   5.5373   6.1543   6.9843   8.0353   9.6640
    10.1166  14.7168

          k = 0.2493-0.2991 0.2413 (  3915 PWs)   bands (ev):

   -72.8822 -42.3096 -41.5265 -40.9627 -11.2890 -10.4726 -10.4022 -10.0037
     1.3882   1.9721   2.2599   2.5118   2.6651   2.8959   3.5569   3.9530
     4.4773   4.9083   5.1608   5.5949   6.1138   7.0891   7.9410   9.7086
    10.0820  14.4984

          k = 0.2499-0.3004-0.3206 (  3914 PWs)   bands (ev):

   -72.8822 -42.3096 -41.5265 -40.9627 -11.2709 -10.6434 -10.2238 -10.0218
     1.6123   1.7841   1.9385   2.5599   2.7906   3.0544   3.5736   3.8895
     4.1555   5.0744   5.3472   5.5763   6.1072   6.9877   8.0367   9.7197
    10.1893  13.8669

          k = 0.2497-0.3000-0.1333 (  3920 PWs)   bands (ev):

   -72.8822 -42.3096 -41.5265 -40.9627 -11.0642 -10.8645 -10.1945 -10.0526
     1.5718   1.7211   1.9715   2.5653   2.7552   3.1066   3.5167   4.1765
     4.2951   4.8408   5.3147   5.5472   6.1549   6.8965   8.1010   9.9065
     9.9473  14.6238

          k = 0.2497-0.1801-0.0423 (  3913 PWs)   bands (ev):

   -72.8822 -42.3096 -41.5265 -40.9627 -11.2700 -10.6440 -10.2243 -10.0219
     1.6126   1.7848   1.9377   2.5638   2.7897   3.0509   3.5736   3.8902
     4.1568   5.0759   5.3432   5.5773   6.1083   6.9873   8.0360   9.7219
    10.1869  13.8670

          k = 0.2495-0.1797 0.1450 (  3921 PWs)   bands (ev):

   -72.8822 -42.3096 -41.5265 -40.9627 -11.2881 -10.4731 -10.4027 -10.0037
     1.3877   1.9717   2.2613   2.5148   2.6647   2.8946   3.5557   3.9536
     4.4765   4.9073   5.1626   5.5944   6.1139   7.0884   7.9410   9.7083
    10.0822  14.5018

          k = 0.2501-0.1811-0.4169 (  3925 PWs)   bands (ev):

   -72.8822 -42.3096 -41.5265 -40.9627 -11.1581 -10.6480 -10.3399 -10.0385
     1.4731   1.8475   2.1045   2.4711   2.6722   3.1254   3.7078   4.0426
     4.3792   4.8960   5.1148   5.5364   6.1527   6.9834   8.0362   9.6630
    10.1195  14.7137

          k = 0.2499-0.1806-0.2296 (  3914 PWs)   bands (ev):

   -72.8822 -42.3096 -41.5265 -40.9627 -11.0642 -10.8652 -10.1939 -10.0525
     1.5726   1.7203   1.9724   2.5667   2.7543   3.1059   3.5144   4.1774
     4.2956   4.8397   5.3173   5.5459   6.1540   6.8960   8.1016   9.9055
     9.9498  14.6232

          k =-0.4999 0.1215 0.2773 (  3922 PWs)   bands (ev):

   -72.8798 -42.3065 -41.5209 -41.0018 -10.6365 -10.4346 -10.2877 -10.0834
     0.7147   1.2112   1.8407   2.2769   2.5964   3.4939   3.8913   4.2647
     4.5468   4.7605   4.8092   5.3331   5.9856   6.7999   7.9324   9.9985
    10.1082  15.3040

          k =-0.5001 0.1219 0.4646 (  3918 PWs)   bands (ev):

   -72.8798 -42.3065 -41.5209 -41.0018 -10.6800 -10.4522 -10.2725 -10.0438
     0.9178   1.2297   1.9704   2.3816   2.6027   3.4227   3.6776   4.2271
     4.4041   4.5189   4.9150   5.1678   5.9822   6.9675   7.9174   9.8071
    10.0737  15.8402

          k =-0.4995 0.1206-0.0973 (  3936 PWs)   bands (ev):

   -72.8798 -42.3065 -41.5209 -41.0018 -10.7166 -10.4725 -10.2561 -10.0096
     1.0800   1.3433   2.2081   2.4503   2.6611   3.1071   3.3980   4.1497
     4.3549   4.4917   4.9009   5.0358   5.9730   7.0958   7.9062   9.5926
    10.0888  16.0905

          k =-0.4997 0.2409 0.1810 (  3934 PWs)   bands (ev):

   -72.8798 -42.3065 -41.5209 -41.0018 -10.6365 -10.4349 -10.2873 -10.0836
     0.7809   1.1126   1.8477   2.2753   2.5799   3.6474   3.8612   4.1972
     4.5397   4.7494   4.8201   5.3275   5.9843   6.8031   7.9264  10.0112
    10.0851  15.6108

          k =-0.4999 0.2413 0.3682 (  3923 PWs)   bands (ev):

   -72.8798 -42.3065 -41.5209 -41.0018 -10.6799 -10.4551 -10.2697 -10.0437
     0.9028   1.2671   1.9644   2.2383   2.8038   3.3415   3.6750   4.2095
     4.4095   4.5198   4.9274   5.1762   5.9804   6.9728   7.9169   9.7958
    10.0866  15.6344

          k =-0.4993 0.2399-0.1936 (  3915 PWs)   bands (ev):

   -72.8798 -42.3065 -41.5209 -41.0018 -10.7190 -10.4671 -10.2608 -10.0077
     1.0958   1.3111   2.1775   2.5379   2.6988   3.0031   3.4704   4.1251
     4.2886   4.4862   4.8794   5.0999   5.9773   7.1010   7.9064   9.6014
    10.0809  16.0471

          k =-0.4995 0.2404-0.0063 (  3927 PWs)   bands (ev):

   -72.8798 -42.3065 -41.5209 -41.0018 -10.6794 -10.4543 -10.2706 -10.0442
     0.9024   1.2671   1.9619   2.2382   2.8031   3.3425   3.6756   4.2129
     4.4117   4.5192   4.9275   5.1748   5.9807   6.9720   7.9163   9.7958
    10.0870  15.6288

          k =-0.5004-0.1173 0.4699 (  3928 PWs)   bands (ev):

   -72.8798 -42.3065 -41.5209 -41.0018 -10.6368 -10.4339 -10.2884 -10.0831
     0.7159   1.2107   1.8392   2.2729   2.5916   3.4953   3.8971   4.2682
     4.5500   4.7590   4.8099   5.3322   5.9859   6.8000   7.9308   9.9952
    10.1101  15.2988

          k =-0.5006-0.1169 0.6572 (  3915 PWs)   bands (ev):

   -72.8798 -42.3065 -41.5209 -41.0018 -10.6807 -10.4524 -10.2722 -10.0430
     0.9198   1.2290   1.9698   2.3798   2.5985   3.4233   3.6789   4.2290
     4.4031   4.5216   4.9150   5.1685   5.9821   6.9685   7.9166   9.8054
    10.0740  15.8452

          k =-0.5000-0.1182 0.0954 (  3928 PWs)   bands (ev):

   -72.8798 -42.3065 -41.5209 -41.0018 -10.7177 -10.4733 -10.2550 -10.0086
     1.0831   1.3430   2.2074   2.4479   2.6586   3.1073   3.3990   4.1475
     4.3554   4.4917   4.9038   5.0359   5.9727   7.0976   7.9060   9.5901
    10.0888  16.0926

     the Fermi energy is     7.0488 ev

!    total energy              =    -520.62076587 Ry
     total all-electron energy =     -3720.874024 Ry
     estimated scf accuracy    <          8.0E-09 Ry
     smearing contrib. (-TS)   =      -0.00492919 Ry
     internal energy E=F+TS    =    -520.61583669 Ry

     The total energy is F=E-TS. E is the sum of the following terms:
     one-electron contribution =    -240.54400503 Ry
     hartree contribution      =     145.34885364 Ry
     xc contribution           =     -61.25046192 Ry
     ewald contribution        =    -185.67413592 Ry
     Hubbard energy            =       0.24475226 Ry
     one-center paw contrib.   =    -178.74083973 Ry

     convergence has been achieved in   8 iterations
     force_hub    :    126.48s CPU     18.80s WALL (       9 calls)
     dndtau       :    110.09s CPU     16.58s WALL (    6804 calls)
     dprojdtau    :     17.75s CPU      2.56s WALL (    6804 calls)
     calc_doverla :     58.41s CPU      8.87s WALL (    6804 calls)
     matel_dSdtau :     80.58s CPU     11.96s WALL (   13608 calls)

     Forces acting on atoms (cartesian axes, Ry/au):

     atom    1 type  1   force =     0.00050563    0.00021733    0.00008198
     atom    2 type  1   force =     0.00005868   -0.00114245    0.00029342
     atom    3 type  3   force =    -0.00026612    0.00042757    0.00054729
     atom    4 type  2   force =    -0.00035067   -0.00009955    0.00042777
     atom    5 type  2   force =     0.00025267   -0.00118516   -0.00060082
     atom    6 type  2   force =     0.00012780    0.00103414   -0.00063333
     atom    7 type  2   force =    -0.00032800    0.00074813   -0.00011631

     Total force =     0.002563     Total SCF correction =     0.000207


     Computing stress (Cartesian axis) and pressure

     stres_hub    :    365.16s CPU     47.85s WALL (       9 calls)
     dprojdepsilo :    298.95s CPU     38.86s WALL (    2916 calls)
     dprojdeps1   :     31.38s CPU      4.30s WALL (    2916 calls)
     dprojdeps2   :    172.44s CPU     21.70s WALL (    2916 calls)
     dprojdeps3   :     95.03s CPU     12.84s WALL (    2916 calls)
          total   stress  (Ry/bohr**3)                   (kbar)     P=        0.22
   0.00001008  -0.00000132   0.00000115            1.48       -0.19        0.17
  -0.00000132   0.00000267   0.00000039           -0.19        0.39        0.06
   0.00000115   0.00000039  -0.00000836            0.17        0.06       -1.23

     Energy error            =      2.5E-05 Ry
     Gradient error          =      1.2E-03 Ry/Bohr
     Cell gradient error     =      1.5E+00 kbar

     number of scf cycles    =   9
     number of bfgs steps    =   8

     enthalpy           old  =    -520.6207404513 Ry
     enthalpy           new  =    -520.6207658722 Ry

     CASE: enthalpy          _new < enthalpy          _old

     new trust radius        =       0.0039866846 bohr
     new conv_thr            =       0.0000000100 Ry

     new unit-cell volume =    487.56260 a.u.^3 (    72.24932 Ang^3 )
     density =      3.85074 g/cm^3

CELL_PARAMETERS (angstrom)
   2.959754007  -0.003450918   0.003308762
   1.493715078   6.180901956  -0.012864999
   2.959702602   3.176910927   3.944075689

ATOMIC_POSITIONS (angstrom)
Mg               3.4402852594        4.7963527724        1.4582577847
Mg               0.4769945348        1.1150605634        0.3377557821
Mn               4.9170414400        2.3308033180        2.5415647842
O                3.4500437929        6.9027905346        1.8201946173
O                4.9178395310        4.3105969750        2.8700938795
O                3.4389213987        2.7954102671        1.3701200262
O                4.9282616995        8.4039052937        3.9027383226



     Writing config-only to output data dir .\out\\qgan.save\ :
     XML data file
     NEW-OLD atomic charge density approx. for the potential
     New effective cutoffs (rho, wfc):  493.54   61.73

     Check: negative core charge=   -0.000002

     Atomic wfc used for Hubbard projectors are orthogonalized


     total cpu time spent up to now is      468.4 secs

     Self-consistent Calculation

     iteration #  1     ecut=    60.00 Ry     beta= 0.70
     Davidson diagonalization with overlap
     ethr =  1.00E-06,  avg # of iterations =  4.9

     =================== HUBBARD OCCUPATIONS ===================
     ------------------------ ATOM    3 ------------------------
     Tr[ns(  3)] =   5.23666
     eigenvalues:
       0.219  0.312  0.399  0.713  0.975
     eigenvectors (columns):
       0.540  0.001 -0.206  0.001 -0.816
      -0.001 -0.964  0.002  0.265 -0.002
      -0.802  0.001 -0.419 -0.001 -0.425
       0.255 -0.003 -0.884 -0.001  0.392
       0.001 -0.265  0.002 -0.964 -0.002
     occupation matrix ns (before diag.):
       0.730  0.001  0.278 -0.209  0.000
       0.001  0.340  0.000 -0.001 -0.103
       0.278  0.000  0.387 -0.059  0.001
      -0.209 -0.001 -0.059  0.476 -0.000
       0.000 -0.103  0.001 -0.000  0.685

     Number of occupied Hubbard levels =    5.2367

     Threshold (ethr) on eigenvalues was too large:
     Diagonalizing with lowered threshold

     Davidson diagonalization with overlap
     ethr =  8.88E-09,  avg # of iterations =  7.1

     total cpu time spent up to now is      474.9 secs

     total energy              =    -520.62077528 Ry
     estimated scf accuracy    <       0.00000489 Ry

     iteration #  2     ecut=    60.00 Ry     beta= 0.70
     Davidson diagonalization with overlap
     ethr =  1.14E-08,  avg # of iterations =  4.3

     total cpu time spent up to now is      477.5 secs

     total energy              =    -520.62077480 Ry
     estimated scf accuracy    <       0.00000844 Ry

     iteration #  3     ecut=    60.00 Ry     beta= 0.70
     Davidson diagonalization with overlap
     ethr =  1.14E-08,  avg # of iterations =  2.1

     total cpu time spent up to now is      479.9 secs

     total energy              =    -520.62077618 Ry
     estimated scf accuracy    <       0.00000285 Ry

     iteration #  4     ecut=    60.00 Ry     beta= 0.70
     Davidson diagonalization with overlap
     ethr =  6.63E-09,  avg # of iterations =  2.2

     total cpu time spent up to now is      482.0 secs

     total energy              =    -520.62077653 Ry
     estimated scf accuracy    <       0.00000443 Ry

     iteration #  5     ecut=    60.00 Ry     beta= 0.70
     Davidson diagonalization with overlap
     ethr =  6.63E-09,  avg # of iterations =  1.2

     total cpu time spent up to now is      484.1 secs

     total energy              =    -520.62077701 Ry
     estimated scf accuracy    <       0.00000021 Ry

     iteration #  6     ecut=    60.00 Ry     beta= 0.70
     Davidson diagonalization with overlap
     ethr =  4.79E-10,  avg # of iterations =  5.1

     total cpu time spent up to now is      486.8 secs

     total energy              =    -520.62077712 Ry
     estimated scf accuracy    <       0.00000006 Ry

     iteration #  7     ecut=    60.00 Ry     beta= 0.70
     Davidson diagonalization with overlap
     ethr =  1.51E-10,  avg # of iterations =  5.5

     total cpu time spent up to now is      489.6 secs

     total energy              =    -520.62077715 Ry
     estimated scf accuracy    <       0.00000001 Ry

     iteration #  8     ecut=    60.00 Ry     beta= 0.70
     Davidson diagonalization with overlap
     c_bands:  1 eigenvalues not converged
     ethr =  3.19E-11,  avg # of iterations = 13.2

     total cpu time spent up to now is      493.9 secs

     End of self-consistent calculation

     =================== HUBBARD OCCUPATIONS ===================
     ------------------------ ATOM    3 ------------------------
     Tr[ns(  3)] =   5.23664
     eigenvalues:
       0.219  0.312  0.399  0.713  0.975
     eigenvectors (columns):
       0.540  0.002  0.207  0.001 -0.816
      -0.001 -0.964 -0.002  0.265 -0.003
      -0.803  0.001  0.419 -0.001 -0.424
       0.255 -0.003  0.884 -0.001  0.392
       0.001 -0.265 -0.002 -0.964 -0.002
     occupation matrix ns (before diag.):
       0.731  0.002  0.278 -0.209  0.000
       0.002  0.340  0.001 -0.001 -0.103
       0.278  0.001  0.387 -0.059  0.001
      -0.209 -0.001 -0.059  0.476 -0.000
       0.000 -0.103  0.001 -0.000  0.685

     Number of occupied Hubbard levels =    5.2366

          k = 0.0000 0.0000 0.0000 (  3893 PWs)   bands (ev):

   -72.8850 -42.3124 -41.5319 -40.9232 -11.8808 -10.5544 -10.2822 -10.0518
     0.8156   1.5014   2.2335   2.7022   3.0719   3.9286   4.1035   4.3710
     4.6201   5.4156   5.6280   5.6820   6.0617   7.1421   8.0040  10.0755
    10.3464  11.7305

          k =-0.0002 0.0004 0.1873 (  3895 PWs)   bands (ev):

   -72.8850 -42.3125 -41.5319 -40.9232 -11.6853 -10.7095 -10.3500 -10.0913
     1.0112   1.7974   1.9842   3.0737   3.0816   3.8903   4.0242   4.4819
     4.5950   4.9584   5.5761   5.6074   5.7655   7.0993   8.1052   9.7865
    10.3883  12.8463

          k = 0.0004-0.0009-0.3746 (  3894 PWs)   bands (ev):

   -72.8849 -42.3125 -41.5320 -40.9232 -11.3578 -10.9822 -10.4192 -10.1452
     1.2711   1.8225   2.5126   3.0178   3.0700   3.4906   3.8837   4.5429
     4.5719   4.8373   5.4813   5.5285   5.6347   7.0558   8.1873   9.5458
    10.4309  14.4565

          k = 0.0002 0.1194-0.0964 (  3889 PWs)   bands (ev):

   -72.8850 -42.3124 -41.5319 -40.9232 -11.7761 -10.5804 -10.4190 -10.0350
     1.0388   1.5174   2.1925   2.8000   3.1068   3.9499   4.1123   4.3177
     4.6865   5.0206   5.4892   5.6341   6.0678   7.1662   7.9964  10.1388
    10.3865  12.5205

          k = 0.0000 0.1198 0.0910 (  3904 PWs)   bands (ev):

   -72.8850 -42.3125 -41.5319 -40.9232 -11.7290 -10.7916 -10.2432 -10.0462
     0.9479   1.7978   2.1031   2.8971   3.0394   3.8074   3.9289   4.4869
     4.6166   5.2215   5.5851   5.5891   5.8382   7.1364   8.1010   9.7907
    10.3474  12.4952

          k = 0.0007 0.1185-0.4710 (  3922 PWs)   bands (ev):

   -72.8850 -42.3126 -41.5320 -40.9232 -11.4061 -11.0632 -10.3200 -10.0880
     1.3059   1.6505   2.4245   3.0382   3.1612   3.5114   3.9110   4.3380
     4.5900   5.0774   5.4400   5.5055   5.6795   7.0922   8.2034   9.5541
    10.3899  13.8603

          k = 0.0005 0.1190-0.2837 (  3906 PWs)   bands (ev):

   -72.8849 -42.3125 -41.5320 -40.9232 -11.5334 -10.7880 -10.4807 -10.0758
     1.2348   1.7907   2.2185   2.9720   3.1065   3.8324   3.9080   4.4366
     4.5012   4.9006   5.4483   5.5548   5.7744   7.1263   8.1247   9.8634
    10.4282  14.0909

          k =-0.0005-0.2388 0.1927 (  3908 PWs)   bands (ev):

   -72.8850 -42.3124 -41.5320 -40.9232 -11.6428 -10.6756 -10.5112 -10.0214
     1.0194   1.8574   2.3984   2.8279   3.1443   3.6051   3.9750   4.2593
     4.5737   4.9930   5.4785   5.5855   6.0707   7.1905   7.9875  10.2065
    10.4260  13.8340

          k =-0.0007-0.2383 0.3800 (  3906 PWs)   bands (ev):

   -72.8850 -42.3125 -41.5319 -40.9232 -11.5904 -10.8615 -10.3672 -10.0332
     1.3334   1.7519   2.0010   2.9118   3.0701   3.8048   3.9508   4.4402
     4.7401   4.8805   5.4335   5.5370   5.8084   7.1617   8.1303   9.8727
    10.3875  13.4202

          k =-0.0001-0.2397-0.1819 (  3902 PWs)   bands (ev):

   -72.8850 -42.3126 -41.5319 -40.9232 -11.4467 -11.1339 -10.2252 -10.0443
     1.1517   1.8233   2.3083   3.0083   3.0396   3.7150   3.9401   4.1026
     4.6010   5.1822   5.4885   5.5577   5.7284   7.1269   8.1696   9.5418
    10.3488  13.7675

          k = 0.2500-0.0607-0.1387 (  3913 PWs)   bands (ev):

   -72.8821 -42.3094 -41.5263 -40.9626 -11.3230 -10.5815 -10.2128 -10.0309
     1.4043   1.6790   2.1265   2.4354   2.7761   3.0204   3.8421   4.0109
     4.2863   5.0115   5.2977   5.5186   6.1187   6.9835   8.0262   9.6946
    10.1060  13.9382

          k = 0.2497-0.0603 0.0486 (  3893 PWs)   bands (ev):

   -72.8821 -42.3094 -41.5263 -40.9626 -11.4210 -10.4545 -10.2595  -9.9974
     1.4227   1.8158   2.0495   2.4445   2.8276   2.8660   3.7138   3.9970
     4.2919   5.0298   5.3814   5.5678   6.0455   7.0729   7.9547   9.7605
    10.0820  13.5889

          k = 0.2504-0.0616-0.5133 (  3920 PWs)   bands (ev):

   -72.8821 -42.3094 -41.5263 -40.9626 -11.2278 -10.5505 -10.3434 -10.0512
     1.3252   1.6865   2.1992   2.5552   2.6748   3.0121   4.0043   4.1284
     4.3890   4.9217   5.0556   5.4853   6.1616   6.9733   8.0222   9.6495
    10.0367  14.7119

          k = 0.2502-0.0611-0.3260 (  3917 PWs)   bands (ev):

   -72.8821 -42.3095 -41.5263 -40.9626 -11.0450 -10.7611 -10.2930 -10.0906
     1.3382   1.6539   2.0928   2.4469   2.7347   3.3589   3.9222   4.2083
     4.3896   4.8542   5.0013   5.4706   6.1834   6.8968   8.0895   9.8100
     9.8648  15.1027

          k = 0.2502 0.0587-0.2350 (  3918 PWs)   bands (ev):

   -72.8821 -42.3094 -41.5263 -40.9626 -11.2285 -10.5504 -10.3425 -10.0514
     1.3253   1.6871   2.1997   2.5530   2.6754   3.0115   4.0020   4.1282
     4.3905   4.9238   5.0541   5.4857   6.1620   6.9746   8.0216   9.6506
    10.0352  14.7093

          k = 0.2500 0.0591-0.0477 (  3898 PWs)   bands (ev):

   -72.8821 -42.3094 -41.5263 -40.9626 -11.4216 -10.4544 -10.2589  -9.9974
     1.4226   1.8154   2.0497   2.4439   2.8243   2.8694   3.7134   3.9959
     4.2937   5.0272   5.3843   5.5683   6.0445   7.0734   7.9547   9.7604
    10.0821  13.5875

          k = 0.2506 0.0578-0.6097 (  3911 PWs)   bands (ev):

   -72.8821 -42.3094 -41.5263 -40.9626 -11.3230 -10.5809 -10.2134 -10.0309
     1.4031   1.6797   2.1262   2.4342   2.7794   3.0185   3.8427   4.0119
     4.2867   5.0100   5.2966   5.5198   6.1194   6.9835   8.0262   9.6926
    10.1070  13.9407

          k = 0.2504 0.0583-0.4224 (  3915 PWs)   bands (ev):

   -72.8821 -42.3095 -41.5263 -40.9626 -11.0450 -10.7605 -10.2934 -10.0909
     1.3381   1.6535   2.0924   2.4467   2.7348   3.3606   3.9241   4.2075
     4.3873   4.8537   5.0021   5.4713   6.1840   6.8972   8.0889   9.8104
     9.8633  15.1040

          k = 0.2495-0.2995 0.0540 (  3925 PWs)   bands (ev):

   -72.8821 -42.3094 -41.5263 -40.9626 -11.1576 -10.6488 -10.3411 -10.0365
     1.4726   1.8465   2.1067   2.4688   2.6745   3.1224   3.7106   4.0409
     4.3809   4.8961   5.1141   5.5399   6.1550   6.9845   8.0357   9.6650
    10.1178  14.7160

          k = 0.2493-0.2990 0.2413 (  3915 PWs)   bands (ev):

   -72.8821 -42.3094 -41.5263 -40.9626 -11.2890 -10.4726 -10.4037 -10.0014
     1.3875   1.9724   2.2612   2.5114   2.6649   2.8943   3.5552   3.9541
     4.4790   4.9097   5.1603   5.5979   6.1147   7.0891   7.9413   9.7093
    10.0833  14.4986

          k = 0.2499-0.3004-0.3206 (  3914 PWs)   bands (ev):

   -72.8821 -42.3094 -41.5263 -40.9626 -11.2712 -10.6442 -10.2241 -10.0198
     1.6113   1.7849   1.9373   2.5616   2.7903   3.0530   3.5736   3.8897
     4.1567   5.0741   5.3490   5.5784   6.1082   6.9878   8.0368   9.7209
    10.1899  13.8666

          k = 0.2497-0.2999-0.1333 (  3920 PWs)   bands (ev):

   -72.8821 -42.3095 -41.5263 -40.9626 -11.0640 -10.8659 -10.1948 -10.0505
     1.5711   1.7204   1.9718   2.5664   2.7550   3.1059   3.5171   4.1762
     4.2957   4.8407   5.3166   5.5486   6.1556   6.8969   8.1014   9.9081
     9.9478  14.6206

          k = 0.2497-0.1801-0.0423 (  3913 PWs)   bands (ev):

   -72.8821 -42.3094 -41.5263 -40.9626 -11.2703 -10.6448 -10.2245 -10.0198
     1.6116   1.7854   1.9367   2.5649   2.7894   3.0499   3.5736   3.8903
     4.1580   5.0753   5.3455   5.5793   6.1090   6.9877   8.0362   9.7226
    10.1881  13.8667

          k = 0.2495-0.1796 0.1450 (  3921 PWs)   bands (ev):

   -72.8821 -42.3094 -41.5263 -40.9626 -11.2882 -10.4730 -10.4042 -10.0014
     1.3871   1.9720   2.2623   2.5141   2.6646   2.8933   3.5541   3.9547
     4.4783   4.9088   5.1618   5.5973   6.1148   7.0885   7.9413   9.7090
    10.0835  14.5015

          k = 0.2501-0.1810-0.4170 (  3925 PWs)   bands (ev):

   -72.8821 -42.3094 -41.5263 -40.9626 -11.1579 -10.6491 -10.3407 -10.0362
     1.4721   1.8471   2.1062   2.4704   2.6725   3.1243   3.7076   4.0429
     4.3805   4.8971   5.1142   5.5391   6.1536   6.9836   8.0366   9.6643
    10.1202  14.7135

          k = 0.2499-0.1805-0.2296 (  3914 PWs)   bands (ev):

   -72.8821 -42.3095 -41.5263 -40.9626 -11.0640 -10.8665 -10.1943 -10.0504
     1.5717   1.7196   1.9726   2.5676   2.7543   3.1054   3.5150   4.1772
     4.2959   4.8399   5.3189   5.5474   6.1548   6.8964   8.1019   9.9074
     9.9498  14.6202

          k =-0.4999 0.1214 0.2774 (  3922 PWs)   bands (ev):

   -72.8797 -42.3064 -41.5207 -41.0017 -10.6367 -10.4370 -10.2843 -10.0840
     0.7147   1.2104   1.8411   2.2763   2.5948   3.4946   3.8922   4.2658
     4.5446   4.7639   4.8121   5.3328   5.9854   6.8004   7.9330   9.9995
    10.1092  15.3033

          k =-0.5001 0.1218 0.4647 (  3918 PWs)   bands (ev):

   -72.8797 -42.3063 -41.5207 -41.0017 -10.6803 -10.4542 -10.2695 -10.0443
     0.9176   1.2289   1.9713   2.3810   2.6015   3.4229   3.6772   4.2280
     4.4053   4.5197   4.9172   5.1688   5.9820   6.9677   7.9179   9.8091
    10.0738  15.8394

          k =-0.4995 0.1205-0.0973 (  3936 PWs)   bands (ev):

   -72.8797 -42.3063 -41.5207 -41.0017 -10.7169 -10.4741 -10.2533 -10.0101
     1.0795   1.3426   2.2094   2.4509   2.6586   3.1081   3.3958   4.1538
     4.3539   4.4913   4.9029   5.0381   5.9729   7.0959   7.9066   9.5946
    10.0889  16.0898

          k =-0.4997 0.2408 0.1810 (  3934 PWs)   bands (ev):

   -72.8797 -42.3064 -41.5207 -41.0017 -10.6367 -10.4374 -10.2838 -10.0843
     0.7811   1.1115   1.8481   2.2752   2.5790   3.6477   3.8612   4.1984
     4.5380   4.7520   4.8231   5.3274   5.9841   6.8036   7.9270  10.0126
    10.0857  15.6089

          k =-0.4999 0.2412 0.3683 (  3923 PWs)   bands (ev):

   -72.8797 -42.3063 -41.5207 -41.0017 -10.6801 -10.4569 -10.2668 -10.0443
     0.9026   1.2661   1.9653   2.2377   2.8027   3.3420   3.6744   4.2115
     4.4100   4.5204   4.9297   5.1772   5.9802   6.9729   7.9174   9.7977
    10.0868  15.6343

          k =-0.4993 0.2399-0.1936 (  3915 PWs)   bands (ev):

   -72.8797 -42.3063 -41.5207 -41.0017 -10.7192 -10.4687 -10.2581 -10.0082
     1.0949   1.3107   2.1783   2.5381   2.6969   3.0043   3.4677   4.1287
     4.2891   4.4856   4.8814   5.1019   5.9771   7.1010   7.9067   9.6036
    10.0810  16.0463

          k =-0.4995 0.2403-0.0063 (  3927 PWs)   bands (ev):

   -72.8797 -42.3063 -41.5207 -41.0017 -10.6797 -10.4563 -10.2675 -10.0447
     0.9024   1.2660   1.9630   2.2377   2.8023   3.3428   3.6750   4.2141
     4.4121   4.5200   4.9296   5.1760   5.9805   6.9723   7.9168   9.7978
    10.0871  15.6292

          k =-0.5004-0.1174 0.4701 (  3928 PWs)   bands (ev):

   -72.8797 -42.3064 -41.5207 -41.0017 -10.6370 -10.4364 -10.2848 -10.0838
     0.7159   1.2097   1.8397   2.2731   2.5906   3.4959   3.8972   4.2688
     4.5473   4.7627   4.8125   5.3321   5.9856   6.8005   7.9315   9.9967
    10.1108  15.2985

          k =-0.5006-0.1170 0.6574 (  3915 PWs)   bands (ev):

   -72.8797 -42.3063 -41.5207 -41.0017 -10.6809 -10.4543 -10.2693 -10.0437
     0.9194   1.2282   1.9707   2.3794   2.5978   3.4235   3.6784   4.2295
     4.4046   4.5220   4.9173   5.1695   5.9820   6.9686   7.9172   9.8076
    10.0741  15.8435

          k =-0.5000-0.1183 0.0954 (  3928 PWs)   bands (ev):

   -72.8797 -42.3063 -41.5207 -41.0017 -10.7179 -10.4747 -10.2525 -10.0092
     1.0822   1.3422   2.2088   2.4490   2.6561   3.1084   3.3965   4.1520
     4.3542   4.4914   4.9054   5.0384   5.9726   7.0975   7.9064   9.5924
    10.0890  16.0922

     the Fermi energy is     7.0490 ev

!    total energy              =    -520.62077717 Ry
     total all-electron energy =     -3720.874036 Ry
     estimated scf accuracy    <          4.6E-09 Ry
     smearing contrib. (-TS)   =      -0.00493258 Ry
     internal energy E=F+TS    =    -520.61584459 Ry

     The total energy is F=E-TS. E is the sum of the following terms:
     one-electron contribution =    -240.58483108 Ry
     hartree contribution      =     145.36973682 Ry
     xc contribution           =     -61.25059152 Ry
     ewald contribution        =    -185.65412161 Ry
     Hubbard energy            =       0.24478940 Ry
     one-center paw contrib.   =    -178.74082661 Ry

     convergence has been achieved in   8 iterations
     force_hub    :    140.62s CPU     20.83s WALL (      10 calls)
     dndtau       :    122.36s CPU     18.37s WALL (    7560 calls)
     dprojdtau    :     19.91s CPU      2.83s WALL (    7560 calls)
     calc_doverla :     64.91s CPU      9.87s WALL (    7560 calls)
     matel_dSdtau :     89.34s CPU     13.25s WALL (   15120 calls)

     Forces acting on atoms (cartesian axes, Ry/au):

     atom    1 type  1   force =     0.00041230   -0.00022402    0.00022382
     atom    2 type  1   force =     0.00003697   -0.00048040   -0.00013563
     atom    3 type  3   force =    -0.00016778    0.00082411    0.00005896
     atom    4 type  2   force =    -0.00032064   -0.00007756    0.00033743
     atom    5 type  2   force =     0.00023219   -0.00077469    0.00027584
     atom    6 type  2   force =     0.00005777    0.00027490   -0.00081542
     atom    7 type  2   force =    -0.00025081    0.00045766    0.00005502

     Total force =     0.001790     Total SCF correction =     0.000139


     Computing stress (Cartesian axis) and pressure

     stres_hub    :    406.03s CPU     53.15s WALL (      10 calls)
     dprojdepsilo :    332.20s CPU     43.15s WALL (    3240 calls)
     dprojdeps1   :     34.47s CPU      4.78s WALL (    3240 calls)
     dprojdeps2   :    191.17s CPU     24.11s WALL (    3240 calls)
     dprojdeps3   :    106.45s CPU     14.25s WALL (    3240 calls)
          total   stress  (Ry/bohr**3)                   (kbar)     P=        0.22
   0.00000930  -0.00000131   0.00000096            1.37       -0.19        0.14
  -0.00000131   0.00000362  -0.00000020           -0.19        0.53       -0.03
   0.00000096  -0.00000020  -0.00000851            0.14       -0.03       -1.25

     Energy error            =      1.1E-05 Ry
     Gradient error          =      8.2E-04 Ry/Bohr
     Cell gradient error     =      1.4E+00 kbar

     number of scf cycles    =  10
     number of bfgs steps    =   9

     enthalpy           old  =    -520.6207658722 Ry
     enthalpy           new  =    -520.6207771674 Ry

     CASE: enthalpy          _new < enthalpy          _old

     new trust radius        =       0.0035980648 bohr
     new conv_thr            =       0.0000000100 Ry

     new unit-cell volume =    487.55558 a.u.^3 (    72.24828 Ang^3 )
     density =      3.85080 g/cm^3

CELL_PARAMETERS (angstrom)
   2.960649404  -0.003789471   0.003602998
   1.493450628   6.181676153  -0.012282497
   2.960625226   3.177344045   3.942739448

ATOMIC_POSITIONS (angstrom)
Mg               3.4417394620        4.7972014635        1.4580282722
Mg               0.4771303202        1.1139272485        0.3386070936
Mn               4.9181554186        2.3314838131        2.5410539798
O                3.4499133719        6.9036463442        1.8210296116
O                4.9195010477        4.3092836610        2.8686099175
O                3.4399198438        2.7961688656        1.3691941644
O                4.9286460500        8.4060112585        3.9021633396



     Writing config-only to output data dir .\out\\qgan.save\ :
     XML data file
     NEW-OLD atomic charge density approx. for the potential
     New effective cutoffs (rho, wfc):  493.89   61.77

     Check: negative core charge=   -0.000002

     Atomic wfc used for Hubbard projectors are orthogonalized


     total cpu time spent up to now is      504.1 secs

     Self-consistent Calculation

     iteration #  1     ecut=    60.00 Ry     beta= 0.70
     Davidson diagonalization with overlap
     ethr =  1.00E-06,  avg # of iterations =  5.2

     =================== HUBBARD OCCUPATIONS ===================
     ------------------------ ATOM    3 ------------------------
     Tr[ns(  3)] =   5.23704
     eigenvalues:
       0.219  0.312  0.399  0.713  0.975
     eigenvectors (columns):
       0.539  0.002  0.207  0.001 -0.816
      -0.001 -0.964 -0.002  0.265 -0.003
      -0.803  0.001  0.419 -0.001 -0.424
       0.254 -0.004  0.884 -0.001  0.392
       0.001 -0.265 -0.002 -0.964 -0.002
     occupation matrix ns (before diag.):
       0.731  0.002  0.277 -0.209  0.000
       0.002  0.340  0.001 -0.001 -0.103
       0.277  0.001  0.387 -0.059  0.001
      -0.209 -0.001 -0.059  0.476 -0.000
       0.000 -0.103  0.001 -0.000  0.685

     Number of occupied Hubbard levels =    5.2370

     Threshold (ethr) on eigenvalues was too large:
     Diagonalizing with lowered threshold

     Davidson diagonalization with overlap
     ethr =  1.06E-08,  avg # of iterations =  4.6

     total cpu time spent up to now is      510.3 secs

     total energy              =    -520.62078407 Ry
     estimated scf accuracy    <       0.00000507 Ry

     iteration #  2     ecut=    60.00 Ry     beta= 0.70
     Davidson diagonalization with overlap
     ethr =  1.18E-08,  avg # of iterations =  2.6

     total cpu time spent up to now is      512.7 secs

     total energy              =    -520.62078310 Ry
     estimated scf accuracy    <       0.00000861 Ry

     iteration #  3     ecut=    60.00 Ry     beta= 0.70
     Davidson diagonalization with overlap
     ethr =  1.18E-08,  avg # of iterations =  2.0

     total cpu time spent up to now is      514.9 secs

     total energy              =    -520.62078386 Ry
     estimated scf accuracy    <       0.00001250 Ry

     iteration #  4     ecut=    60.00 Ry     beta= 0.70
     Davidson diagonalization with overlap
     ethr =  1.18E-08,  avg # of iterations =  2.0

     total cpu time spent up to now is      517.1 secs

     total energy              =    -520.62078540 Ry
     estimated scf accuracy    <       0.00000183 Ry

     iteration #  5     ecut=    60.00 Ry     beta= 0.70
     Davidson diagonalization with overlap
     ethr =  4.25E-09,  avg # of iterations =  1.3

     total cpu time spent up to now is      519.3 secs

     total energy              =    -520.62078565 Ry
     estimated scf accuracy    <       0.00000010 Ry

     iteration #  6     ecut=    60.00 Ry     beta= 0.70
     Davidson diagonalization with overlap
     ethr =  2.40E-10,  avg # of iterations =  7.9

     total cpu time spent up to now is      522.7 secs

     total energy              =    -520.62078578 Ry
     estimated scf accuracy    <       0.00000008 Ry

     iteration #  7     ecut=    60.00 Ry     beta= 0.70
     Davidson diagonalization with overlap
     ethr =  1.92E-10,  avg # of iterations =  1.6

     total cpu time spent up to now is      524.8 secs

     total energy              =    -520.62078580 Ry
     estimated scf accuracy    <       0.00000002 Ry

     iteration #  8     ecut=    60.00 Ry     beta= 0.70
     Davidson diagonalization with overlap
     ethr =  5.23E-11,  avg # of iterations =  4.8

     total cpu time spent up to now is      527.6 secs

     total energy              =    -520.62078581 Ry
     estimated scf accuracy    <       0.00000002 Ry

     iteration #  9     ecut=    60.00 Ry     beta= 0.70
     Davidson diagonalization with overlap
     ethr =  3.50E-11,  avg # of iterations =  2.2

     total cpu time spent up to now is      529.8 secs

     total energy              =    -520.62078581 Ry
     estimated scf accuracy    <       0.00000001 Ry

     iteration # 10     ecut=    60.00 Ry     beta= 0.70
     Davidson diagonalization with overlap
     ethr =  2.58E-11,  avg # of iterations =  3.8

     total cpu time spent up to now is      532.4 secs

     End of self-consistent calculation

     =================== HUBBARD OCCUPATIONS ===================
     ------------------------ ATOM    3 ------------------------
     Tr[ns(  3)] =   5.23657
     eigenvalues:
       0.219  0.312  0.399  0.713  0.975
     eigenvectors (columns):
       0.538  0.002  0.207  0.001 -0.817
      -0.001 -0.964 -0.002  0.265 -0.003
      -0.804  0.001  0.418 -0.001 -0.423
       0.254 -0.003  0.884 -0.001  0.392
       0.000 -0.265 -0.002 -0.964 -0.002
     occupation matrix ns (before diag.):
       0.732  0.002  0.277 -0.209  0.001
       0.002  0.340  0.001 -0.001 -0.102
       0.277  0.001  0.386 -0.059  0.001
      -0.209 -0.001 -0.059  0.476 -0.000
       0.001 -0.102  0.001 -0.000  0.685

     Number of occupied Hubbard levels =    5.2366

          k = 0.0000 0.0000 0.0000 (  3893 PWs)   bands (ev):

   -72.8853 -42.3123 -41.5324 -40.9235 -11.8807 -10.5538 -10.2823 -10.0508
     0.8158   1.5016   2.2361   2.7014   3.0722   3.9249   4.1038   4.3686
     4.6210   5.4177   5.6275   5.6816   6.0628   7.1418   8.0032  10.0770
    10.3452  11.7310

          k =-0.0002 0.0004 0.1874 (  3895 PWs)   bands (ev):

   -72.8852 -42.3123 -41.5325 -40.9235 -11.6848 -10.7091 -10.3510 -10.0897
     1.0118   1.7989   1.9843   3.0740   3.0817   3.8866   4.0242   4.4798
     4.5967   4.9599   5.5759   5.6066   5.7654   7.0991   8.1049   9.7876
    10.3871  12.8470

          k = 0.0005-0.0009-0.3748 (  3894 PWs)   bands (ev):

   -72.8851 -42.3124 -41.5325 -40.9235 -11.3558 -10.9832 -10.4211 -10.1431
     1.2710   1.8247   2.5158   3.0185   3.0702   3.4877   3.8802   4.5449
     4.5700   4.8362   5.4828   5.5272   5.6342   7.0556   8.1874   9.5466
    10.4297  14.4580

          k = 0.0003 0.1194-0.0964 (  3889 PWs)   bands (ev):

   -72.8852 -42.3123 -41.5324 -40.9235 -11.7758 -10.5798 -10.4195 -10.0340
     1.0393   1.5181   2.1941   2.7985   3.1073   3.9460   4.1141   4.3156
     4.6882   5.0206   5.4902   5.6336   6.0677   7.1660   7.9959  10.1406
    10.3853  12.5207

          k = 0.0000 0.1198 0.0910 (  3904 PWs)   bands (ev):

   -72.8853 -42.3123 -41.5324 -40.9235 -11.7289 -10.7907 -10.2442 -10.0446
     0.9486   1.7979   2.1061   2.8959   3.0397   3.8077   3.9252   4.4849
     4.6162   5.2231   5.5848   5.5882   5.8397   7.1362   8.1006   9.7924
    10.3462  12.4956

          k = 0.0007 0.1185-0.4712 (  3922 PWs)   bands (ev):

   -72.8852 -42.3124 -41.5325 -40.9235 -11.4052 -11.0629 -10.3217 -10.0860
     1.3066   1.6519   2.4278   3.0385   3.1595   3.5113   3.9074   4.3367
     4.5882   5.0789   5.4411   5.5042   5.6791   7.0920   8.2034   9.5556
    10.3887  13.8604

          k = 0.0005 0.1190-0.2838 (  3906 PWs)   bands (ev):

   -72.8851 -42.3123 -41.5325 -40.9235 -11.5323 -10.7882 -10.4815 -10.0744
     1.2356   1.7917   2.2200   2.9718   3.1069   3.8326   3.9042   4.4347
     4.5026   4.9006   5.4500   5.5540   5.7732   7.1261   8.1246   9.8648
    10.4270  14.0913

          k =-0.0005-0.2388 0.1928 (  3908 PWs)   bands (ev):

   -72.8852 -42.3123 -41.5325 -40.9235 -11.6420 -10.6759 -10.5112 -10.0203
     1.0200   1.8593   2.4001   2.8253   3.1448   3.6051   3.9707   4.2575
     4.5769   4.9935   5.4799   5.5849   6.0695   7.1903   7.9871  10.2084
    10.4248  13.8337

          k =-0.0008-0.2383 0.3802 (  3906 PWs)   bands (ev):

   -72.8852 -42.3123 -41.5325 -40.9235 -11.5900 -10.8607 -10.3682 -10.0320
     1.3349   1.7519   2.0034   2.9103   3.0704   3.8064   3.9469   4.4383
     4.7383   4.8821   5.4349   5.5361   5.8080   7.1615   8.1301   9.8747
    10.3863  13.4203

          k =-0.0001-0.2396-0.1820 (  3902 PWs)   bands (ev):

   -72.8852 -42.3124 -41.5324 -40.9235 -11.4469 -11.1326 -10.2269 -10.0423
     1.1527   1.8247   2.3115   3.0085   3.0384   3.7142   3.9364   4.1009
     4.5992   5.1829   5.4873   5.5580   5.7299   7.1269   8.1694   9.5440
    10.3476  13.7662

          k = 0.2499-0.0606-0.1388 (  3913 PWs)   bands (ev):

   -72.8823 -42.3093 -41.5268 -40.9627 -11.3228 -10.5813 -10.2123 -10.0316
     1.4036   1.6785   2.1273   2.4353   2.7781   3.0185   3.8412   4.0115
     4.2856   5.0118   5.2998   5.5188   6.1191   6.9835   8.0257   9.6944
    10.1066  13.9384

          k = 0.2497-0.0602 0.0486 (  3893 PWs)   bands (ev):

   -72.8823 -42.3092 -41.5268 -40.9627 -11.4211 -10.4543 -10.2585  -9.9982
     1.4220   1.8168   2.0478   2.4457   2.8268   2.8671   3.7134   3.9959
     4.2922   5.0293   5.3839   5.5690   6.0458   7.0729   7.9540   9.7605
    10.0824  13.5886

          k = 0.2503-0.0615-0.5136 (  3920 PWs)   bands (ev):

   -72.8823 -42.3093 -41.5269 -40.9627 -11.2272 -10.5509 -10.3434 -10.0513
     1.3243   1.6862   2.2013   2.5555   2.6746   3.0110   4.0042   4.1266
     4.3905   4.9237   5.0548   5.4860   6.1618   6.9731   8.0220   9.6498
    10.0369  14.7111

          k = 0.2501-0.0611-0.3262 (  3917 PWs)   bands (ev):

   -72.8823 -42.3093 -41.5269 -40.9627 -11.0431 -10.7625 -10.2937 -10.0904
     1.3367   1.6536   2.0950   2.4477   2.7337   3.3595   3.9225   4.2071
     4.3897   4.8559   5.0000   5.4716   6.1835   6.8967   8.0894   9.8115
     9.8638  15.1007

          k = 0.2502 0.0587-0.2352 (  3918 PWs)   bands (ev):

   -72.8823 -42.3093 -41.5269 -40.9627 -11.2277 -10.5508 -10.3427 -10.0515
     1.3245   1.6866   2.2018   2.5534   2.6751   3.0108   4.0024   4.1264
     4.3917   4.9256   5.0537   5.4863   6.1621   6.9743   8.0214   9.6505
    10.0359  14.7090

          k = 0.2499 0.0592-0.0478 (  3898 PWs)   bands (ev):

   -72.8823 -42.3092 -41.5268 -40.9627 -11.4216 -10.4542 -10.2581  -9.9982
     1.4219   1.8164   2.0479   2.4452   2.8241   2.8698   3.7132   3.9950
     4.2935   5.0272   5.3864   5.5694   6.0449   7.0733   7.9540   9.7605
    10.0824  13.5875

          k = 0.2506 0.0579-0.6100 (  3911 PWs)   bands (ev):

   -72.8823 -42.3093 -41.5268 -40.9627 -11.3229 -10.5808 -10.2128 -10.0317
     1.4027   1.6791   2.1270   2.4344   2.7810   3.0168   3.8418   4.0124
     4.2859   5.0106   5.2988   5.5199   6.1198   6.9833   8.0258   9.6930
    10.1071  13.9404

          k = 0.2504 0.0583-0.4226 (  3915 PWs)   bands (ev):

   -72.8823 -42.3093 -41.5269 -40.9627 -11.0430 -10.7620 -10.2940 -10.0906
     1.3367   1.6533   2.0947   2.4477   2.7336   3.3607   3.9242   4.2064
     4.3880   4.8554   5.0005   5.4723   6.1840   6.8971   8.0889   9.8118
     9.8627  15.1016

          k = 0.2493-0.2994 0.0540 (  3925 PWs)   bands (ev):

   -72.8823 -42.3093 -41.5269 -40.9627 -11.1568 -10.6490 -10.3415 -10.0365
     1.4719   1.8462   2.1089   2.4682   2.6747   3.1220   3.7095   4.0407
     4.3818   4.8971   5.1136   5.5405   6.1549   6.9844   8.0356   9.6652
    10.1189  14.7148

          k = 0.2491-0.2990 0.2415 (  3915 PWs)   bands (ev):

   -72.8823 -42.3092 -41.5269 -40.9627 -11.2885 -10.4722 -10.4044 -10.0016
     1.3867   1.9734   2.2627   2.5110   2.6653   2.8930   3.5531   3.9534
     4.4810   4.9110   5.1602   5.5984   6.1149   7.0889   7.9409   9.7091
    10.0844  14.4984

          k = 0.2498-0.3003-0.3208 (  3914 PWs)   bands (ev):

   -72.8823 -42.3093 -41.5268 -40.9627 -11.2710 -10.6438 -10.2241 -10.0202
     1.6109   1.7855   1.9366   2.5640   2.7901   3.0515   3.5725   3.8898
     4.1565   5.0738   5.3511   5.5788   6.1088   6.9877   8.0364   9.7215
    10.1902  13.8666

          k = 0.2496-0.2998-0.1334 (  3920 PWs)   bands (ev):

   -72.8823 -42.3093 -41.5268 -40.9627 -11.0633 -10.8662 -10.1949 -10.0506
     1.5708   1.7197   1.9731   2.5678   2.7550   3.1053   3.5162   4.1747
     4.2953   4.8418   5.3183   5.5484   6.1560   6.8969   8.1012   9.9096
     9.9474  14.6184

          k = 0.2496-0.1800-0.0424 (  3913 PWs)   bands (ev):

   -72.8823 -42.3093 -41.5268 -40.9627 -11.2703 -10.6443 -10.2244 -10.0203
     1.6113   1.7859   1.9363   2.5666   2.7893   3.0489   3.5725   3.8901
     4.1577   5.0745   5.3483   5.5795   6.1093   6.9877   8.0359   9.7226
    10.1890  13.8666

          k = 0.2494-0.1796 0.1450 (  3921 PWs)   bands (ev):

   -72.8823 -42.3092 -41.5269 -40.9627 -11.2879 -10.4726 -10.4047 -10.0016
     1.3864   1.9732   2.2634   2.5132   2.6649   2.8923   3.5521   3.9539
     4.4806   4.9102   5.1614   5.5980   6.1150   7.0884   7.9409   9.7089
    10.0846  14.5007

          k = 0.2501-0.1809-0.4172 (  3925 PWs)   bands (ev):

   -72.8823 -42.3093 -41.5269 -40.9627 -11.1571 -10.6492 -10.3412 -10.0363
     1.4713   1.8467   2.1085   2.4696   2.6732   3.1234   3.7071   4.0423
     4.3813   4.8980   5.1139   5.5398   6.1539   6.9835   8.0364   9.6648
    10.1206  14.7132

          k = 0.2498-0.1805-0.2298 (  3914 PWs)   bands (ev):

   -72.8823 -42.3093 -41.5268 -40.9627 -11.0632 -10.8667 -10.1945 -10.0505
     1.5712   1.7191   1.9737   2.5686   2.7545   3.1051   3.5144   4.1758
     4.2952   4.8412   5.3202   5.5473   6.1553   6.8965   8.1017   9.9092
     9.9489  14.6181

          k =-0.4998 0.1213 0.2775 (  3922 PWs)   bands (ev):

   -72.8800 -42.3062 -41.5212 -41.0017 -10.6353 -10.4388 -10.2807 -10.0886
     0.7142   1.2102   1.8418   2.2759   2.5928   3.4966   3.8946   4.2671
     4.5415   4.7669   4.8136   5.3333   5.9833   6.8003   7.9330  10.0000
    10.1094  15.3030

          k =-0.5000 0.1217 0.4649 (  3918 PWs)   bands (ev):

   -72.8799 -42.3062 -41.5213 -41.0017 -10.6795 -10.4556 -10.2662 -10.0483
     0.9171   1.2289   1.9724   2.3801   2.6005   3.4238   3.6779   4.2288
     4.4057   4.5202   4.9190   5.1698   5.9799   6.9677   7.9178   9.8115
    10.0720  15.8394

          k =-0.4993 0.1204-0.0973 (  3936 PWs)   bands (ev):

   -72.8799 -42.3062 -41.5213 -41.0017 -10.7165 -10.4754 -10.2501 -10.0138
     1.0792   1.3426   2.2117   2.4510   2.6560   3.1084   3.3952   4.1572
     4.3523   4.4912   4.9045   5.0401   5.9708   7.0960   7.9063   9.5968
    10.0870  16.0901

          k =-0.4995 0.2407 0.1811 (  3934 PWs)   bands (ev):

   -72.8800 -42.3062 -41.5213 -41.0017 -10.6352 -10.4393 -10.2801 -10.0890
     0.7805   1.1113   1.8489   2.2748   2.5784   3.6494   3.8619   4.1998
     4.5355   4.7542   4.8247   5.3282   5.9820   6.8035   7.9272  10.0138
    10.0853  15.6080

          k =-0.4997 0.2411 0.3685 (  3923 PWs)   bands (ev):

   -72.8799 -42.3062 -41.5213 -41.0017 -10.6792 -10.4582 -10.2636 -10.0486
     0.9021   1.2659   1.9662   2.2371   2.8020   3.3430   3.6747   4.2131
     4.4100   4.5209   4.9312   5.1782   5.9782   6.9728   7.9173   9.8000
    10.0853  15.6342

          k =-0.4991 0.2398-0.1937 (  3915 PWs)   bands (ev):

   -72.8799 -42.3062 -41.5212 -41.0017 -10.7188 -10.4698 -10.2551 -10.0119
     1.0943   1.3111   2.1801   2.5379   2.6952   3.0052   3.4666   4.1321
     4.2882   4.4851   4.8832   5.1033   5.9751   7.1009   7.9064   9.6061
    10.0791  16.0461

          k =-0.4993 0.2402-0.0063 (  3927 PWs)   bands (ev):

   -72.8799 -42.3062 -41.5213 -41.0017 -10.6789 -10.4578 -10.2641 -10.0489
     0.9020   1.2657   1.9644   2.2371   2.8018   3.3436   3.6752   4.2147
     4.4118   4.5208   4.9311   5.1772   5.9784   6.9723   7.9168   9.8001
    10.0854  15.6299

          k =-0.5003-0.1175 0.4704 (  3928 PWs)   bands (ev):

   -72.8800 -42.3062 -41.5213 -41.0017 -10.6355 -10.4384 -10.2810 -10.0885
     0.7154   1.2093   1.8406   2.2738   2.5894   3.4977   3.8983   4.2693
     4.5436   4.7660   4.8138   5.3328   5.9835   6.8005   7.9319   9.9979
    10.1104  15.2988

          k =-0.5005-0.1170 0.6578 (  3915 PWs)   bands (ev):

   -72.8799 -42.3062 -41.5212 -41.0017 -10.6800 -10.4556 -10.2660 -10.0479
     0.9187   1.2283   1.9719   2.3787   2.5976   3.4244   3.6790   4.2297
     4.4052   4.5221   4.9190   5.1703   5.9799   6.9684   7.9172   9.8103
    10.0723  15.8422

          k =-0.4999-0.1183 0.0956 (  3928 PWs)   bands (ev):

   -72.8799 -42.3062 -41.5213 -41.0017 -10.7173 -10.4758 -10.2495 -10.0131
     1.0815   1.3422   2.2112   2.4496   2.6537   3.1088   3.3957   4.1559
     4.3523   4.4914   4.9064   5.0405   5.9706   7.0973   7.9061   9.5951
    10.0872  16.0925

     the Fermi energy is     7.0489 ev

!    total energy              =    -520.62078584 Ry
     total all-electron energy =     -3720.874044 Ry
     estimated scf accuracy    <          6.3E-09 Ry
     smearing contrib. (-TS)   =      -0.00493369 Ry
     internal energy E=F+TS    =    -520.61585216 Ry

     The total energy is F=E-TS. E is the sum of the following terms:
     one-electron contribution =    -240.58931018 Ry
     hartree contribution      =     145.37214120 Ry
     xc contribution           =     -61.25060146 Ry
     ewald contribution        =    -185.65204778 Ry
     Hubbard energy            =       0.24481329 Ry
     one-center paw contrib.   =    -178.74084722 Ry

     convergence has been achieved in  10 iterations
     force_hub    :    155.67s CPU     23.01s WALL (      11 calls)
     dndtau       :    135.23s CPU     20.21s WALL (    8316 calls)
     dprojdtau    :     21.67s CPU      3.09s WALL (    8316 calls)
     calc_doverla :     72.14s CPU     10.89s WALL (    8316 calls)
     matel_dSdtau :     98.66s CPU     14.62s WALL (   16632 calls)

     Forces acting on atoms (cartesian axes, Ry/au):

     atom    1 type  1   force =     0.00028639   -0.00038341    0.00022329
     atom    2 type  1   force =     0.00002145    0.00000763   -0.00011948
     atom    3 type  3   force =    -0.00006693    0.00074265   -0.00047064
     atom    4 type  2   force =    -0.00026450    0.00009308    0.00030273
     atom    5 type  2   force =     0.00018349   -0.00026196    0.00078638
     atom    6 type  2   force =    -0.00000741   -0.00034719   -0.00087308
     atom    7 type  2   force =    -0.00015249    0.00014921    0.00015080

     Total force =     0.001707     Total SCF correction =     0.000057


     Computing stress (Cartesian axis) and pressure

     stres_hub    :    446.12s CPU     58.47s WALL (      11 calls)
     dprojdepsilo :    365.50s CPU     47.45s WALL (    3564 calls)
     dprojdeps1   :     38.84s CPU      5.26s WALL (    3564 calls)
     dprojdeps2   :    210.08s CPU     26.53s WALL (    3564 calls)
     dprojdeps3   :    116.45s CPU     15.65s WALL (    3564 calls)
          total   stress  (Ry/bohr**3)                   (kbar)     P=        0.26
   0.00000537  -0.00000125   0.00000072            0.79       -0.18        0.11
  -0.00000125   0.00000468  -0.00000083           -0.18        0.69       -0.12
   0.00000072  -0.00000083  -0.00000468            0.11       -0.12       -0.69

     Energy error            =      8.7E-06 Ry
     Gradient error          =      8.7E-04 Ry/Bohr
     Cell gradient error     =      7.9E-01 kbar

     number of scf cycles    =  11
     number of bfgs steps    =  10

     enthalpy           old  =    -520.6207771674 Ry
     enthalpy           new  =    -520.6207858414 Ry

     CASE: enthalpy          _new < enthalpy          _old

     new trust radius        =       0.0028458646 bohr
     new conv_thr            =       0.0000000100 Ry

     new unit-cell volume =    487.60959 a.u.^3 (    72.25629 Ang^3 )
     density =      3.85037 g/cm^3

CELL_PARAMETERS (angstrom)
   2.961794163  -0.004187242   0.003913560
   1.493185466   6.183068404  -0.011983972
   2.961753606   3.177866960   3.941019718

ATOMIC_POSITIONS (angstrom)
Mg               3.4434676682        4.7978686914        1.4574449676
Mg               0.4772707066        1.1133339655        0.3389292192
Mn               4.9196690525        2.3323414178        2.5400104213
O                3.4498494085        6.9052483223        1.8217418221
O                4.9215651451        4.3083952877        2.8674218534
O                3.4411245619        2.7966504488        1.3676712540
O                4.9292810754        8.4087220874        3.9012123336



     Writing config-only to output data dir .\out\\qgan.save\ :
     XML data file
     NEW-OLD atomic charge density approx. for the potential
     New effective cutoffs (rho, wfc):  494.31   61.82

     Check: negative core charge=   -0.000002

     Atomic wfc used for Hubbard projectors are orthogonalized


     total cpu time spent up to now is      542.8 secs

     Self-consistent Calculation

     iteration #  1     ecut=    60.00 Ry     beta= 0.70
     Davidson diagonalization with overlap
     ethr =  1.00E-06,  avg # of iterations =  5.4

     =================== HUBBARD OCCUPATIONS ===================
     ------------------------ ATOM    3 ------------------------
     Tr[ns(  3)] =   5.23690
     eigenvalues:
       0.219  0.312  0.399  0.713  0.976
     eigenvectors (columns):
       0.538  0.002  0.207  0.001 -0.817
      -0.001 -0.964 -0.002  0.265 -0.003
      -0.804  0.001  0.418 -0.001 -0.423
       0.254 -0.004  0.884 -0.002  0.392
       0.000 -0.265 -0.002 -0.964 -0.002
     occupation matrix ns (before diag.):
       0.732  0.002  0.277 -0.209  0.001
       0.002  0.340  0.001 -0.001 -0.102
       0.277  0.001  0.386 -0.059  0.001
      -0.209 -0.001 -0.059  0.476 -0.000
       0.001 -0.102  0.001 -0.000  0.685

     Number of occupied Hubbard levels =    5.2369

     Threshold (ethr) on eigenvalues was too large:
     Diagonalizing with lowered threshold

     Davidson diagonalization with overlap
     ethr =  9.96E-09,  avg # of iterations =  6.6

     total cpu time spent up to now is      549.3 secs

     total energy              =    -520.62079066 Ry
     estimated scf accuracy    <       0.00000525 Ry

     iteration #  2     ecut=    60.00 Ry     beta= 0.70
     Davidson diagonalization with overlap
     ethr =  1.22E-08,  avg # of iterations =  2.1

     total cpu time spent up to now is      551.6 secs

     total energy              =    -520.62078946 Ry
     estimated scf accuracy    <       0.00000834 Ry

     iteration #  3     ecut=    60.00 Ry     beta= 0.70
     Davidson diagonalization with overlap
     ethr =  1.22E-08,  avg # of iterations =  2.0

     total cpu time spent up to now is      553.8 secs

     total energy              =    -520.62079020 Ry
     estimated scf accuracy    <       0.00001328 Ry

     iteration #  4     ecut=    60.00 Ry     beta= 0.70
     Davidson diagonalization with overlap
     ethr =  1.22E-08,  avg # of iterations =  2.0

     total cpu time spent up to now is      556.0 secs

     total energy              =    -520.62079174 Ry
     estimated scf accuracy    <       0.00000225 Ry

     iteration #  5     ecut=    60.00 Ry     beta= 0.70
     Davidson diagonalization with overlap
     ethr =  5.23E-09,  avg # of iterations =  1.3

     total cpu time spent up to now is      558.1 secs

     total energy              =    -520.62079204 Ry
     estimated scf accuracy    <       0.00000014 Ry

     iteration #  6     ecut=    60.00 Ry     beta= 0.70
     Davidson diagonalization with overlap
     ethr =  3.36E-10,  avg # of iterations =  7.4

     total cpu time spent up to now is      561.6 secs

     total energy              =    -520.62079219 Ry
     estimated scf accuracy    <       0.00000007 Ry

     iteration #  7     ecut=    60.00 Ry     beta= 0.70
     Davidson diagonalization with overlap
     ethr =  1.66E-10,  avg # of iterations =  2.6

     total cpu time spent up to now is      564.0 secs

     total energy              =    -520.62079222 Ry
     estimated scf accuracy    <       0.00000003 Ry

     iteration #  8     ecut=    60.00 Ry     beta= 0.70
     Davidson diagonalization with overlap
     ethr =  6.92E-11,  avg # of iterations =  2.8

     total cpu time spent up to now is      566.4 secs

     total energy              =    -520.62079223 Ry
     estimated scf accuracy    <       0.00000002 Ry

     iteration #  9     ecut=    60.00 Ry     beta= 0.70
     Davidson diagonalization with overlap
     ethr =  4.06E-11,  avg # of iterations =  3.4

     total cpu time spent up to now is      569.0 secs

     total energy              =    -520.62079221 Ry
     estimated scf accuracy    <       0.00000001 Ry

     iteration # 10     ecut=    60.00 Ry     beta= 0.70
     Davidson diagonalization with overlap
     ethr =  3.22E-11,  avg # of iterations =  4.4

     total cpu time spent up to now is      572.3 secs

     End of self-consistent calculation

     =================== HUBBARD OCCUPATIONS ===================
     ------------------------ ATOM    3 ------------------------
     Tr[ns(  3)] =   5.23652
     eigenvalues:
       0.219  0.312  0.399  0.713  0.976
     eigenvectors (columns):
       0.537 -0.002 -0.208  0.001 -0.818
      -0.001  0.965  0.002  0.264 -0.003
      -0.805 -0.001 -0.418 -0.001 -0.422
       0.254  0.004 -0.885 -0.002  0.391
       0.000  0.264  0.002 -0.965 -0.002
     occupation matrix ns (before diag.):
       0.733  0.002  0.277 -0.209  0.001
       0.002  0.340  0.001 -0.001 -0.102
       0.277  0.001  0.385 -0.058  0.001
      -0.209 -0.001 -0.058  0.476  0.000
       0.001 -0.102  0.001  0.000  0.685

     Number of occupied Hubbard levels =    5.2365

          k = 0.0000 0.0000 0.0000 (  3893 PWs)   bands (ev):

   -72.8871 -42.3138 -41.5347 -40.9252 -11.8811 -10.5533 -10.2830 -10.0529
     0.8161   1.4997   2.2379   2.7004   3.0720   3.9195   4.1018   4.3651
     4.6221   5.4178   5.6252   5.6777   6.0618   7.1400   8.0003  10.0766
    10.3415  11.7294

          k =-0.0002 0.0004 0.1875 (  3895 PWs)   bands (ev):

   -72.8871 -42.3139 -41.5347 -40.9252 -11.6849 -10.7087 -10.3526 -10.0912
     1.0126   1.7994   1.9826   3.0739   3.0814   3.8813   4.0230   4.4765
     4.5972   4.9607   5.5730   5.6023   5.7635   7.0974   8.1025   9.7868
    10.3833  12.8457

          k = 0.0005-0.0008-0.3750 (  3894 PWs)   bands (ev):

   -72.8870 -42.3139 -41.5347 -40.9252 -11.3548 -10.9836 -10.4235 -10.1442
     1.2711   1.8262   2.5172   3.0174   3.0699   3.4847   3.8750   4.5464
     4.5670   4.8340   5.4815   5.5224   5.6316   7.0540   8.1854   9.5453
    10.4259  14.4578

          k = 0.0003 0.1194-0.0965 (  3889 PWs)   bands (ev):

   -72.8871 -42.3138 -41.5347 -40.9252 -11.7761 -10.5797 -10.4200 -10.0360
     1.0396   1.5173   2.1949   2.7966   3.1071   3.9404   4.1144   4.3122
     4.6887   5.0201   5.4882   5.6297   6.0657   7.1643   7.9934  10.1406
    10.3815  12.5190

          k = 0.0000 0.1198 0.0910 (  3904 PWs)   bands (ev):

   -72.8871 -42.3139 -41.5347 -40.9252 -11.7293 -10.7901 -10.2457 -10.0461
     0.9495   1.7973   2.1072   2.8942   3.0395   3.8070   3.9198   4.4816
     4.6149   5.2216   5.5831   5.5840   5.8395   7.1345   8.0983   9.7921
    10.3425  12.4941

          k = 0.0008 0.1185-0.4715 (  3922 PWs)   bands (ev):

   -72.8871 -42.3140 -41.5347 -40.9252 -11.4051 -11.0627 -10.3238 -10.0872
     1.3075   1.6530   2.4295   3.0382   3.1561   3.5103   3.9021   4.3341
     4.5852   5.0791   5.4399   5.4995   5.6770   7.0905   8.2015   9.5551
    10.3850  13.8579

          k = 0.0005 0.1189-0.2840 (  3906 PWs)   bands (ev):

   -72.8870 -42.3139 -41.5347 -40.9252 -11.5321 -10.7884 -10.4828 -10.0762
     1.2363   1.7913   2.2205   2.9708   3.1068   3.8319   3.8988   4.4315
     4.5029   4.8994   5.4487   5.5496   5.7703   7.1245   8.1225   9.8644
    10.4232  14.0899

          k =-0.0006-0.2387 0.1929 (  3908 PWs)   bands (ev):

   -72.8871 -42.3138 -41.5347 -40.9252 -11.6421 -10.6771 -10.5106 -10.0225
     1.0197   1.8605   2.4008   2.8222   3.1448   3.6043   3.9648   4.2544
     4.5784   4.9928   5.4783   5.5810   6.0668   7.1887   7.9847  10.2088
    10.4210  13.8318

          k =-0.0008-0.2383 0.3804 (  3906 PWs)   bands (ev):

   -72.8871 -42.3139 -41.5347 -40.9252 -11.5903 -10.8602 -10.3695 -10.0337
     1.3364   1.7509   2.0047   2.9081   3.0703   3.8065   3.9414   4.4352
     4.7354   4.8817   5.4338   5.5318   5.8062   7.1599   8.1282   9.8748
    10.3825  13.4185

          k =-0.0001-0.2396-0.1821 (  3902 PWs)   bands (ev):

   -72.8871 -42.3140 -41.5347 -40.9252 -11.4475 -11.1319 -10.2289 -10.0433
     1.1540   1.8261   2.3134   3.0083   3.0349   3.7121   3.9311   4.0979
     4.5962   5.1811   5.4827   5.5565   5.7301   7.1253   8.1674   9.5442
    10.3439  13.7626

          k = 0.2498-0.0606-0.1389 (  3913 PWs)   bands (ev):

   -72.8842 -42.3109 -41.5291 -40.9643 -11.3234 -10.5813 -10.2127 -10.0351
     1.4032   1.6769   2.1273   2.4342   2.7790   3.0161   3.8386   4.0107
     4.2832   5.0111   5.3002   5.5161   6.1179   6.9817   8.0233   9.6921
    10.1048  13.9372

          k = 0.2496-0.0602 0.0486 (  3893 PWs)   bands (ev):

   -72.8842 -42.3108 -41.5291 -40.9643 -11.4220 -10.4542 -10.2586 -10.0018
     1.4212   1.8159   2.0458   2.4456   2.8257   2.8673   3.7120   3.9924
     4.2910   5.0282   5.3849   5.5665   6.0442   7.0712   7.9513   9.7584
    10.0805  13.5865

          k = 0.2503-0.0614-0.5139 (  3920 PWs)   bands (ev):

   -72.8842 -42.3109 -41.5291 -40.9643 -11.2275 -10.5510 -10.3444 -10.0544
     1.3231   1.6848   2.2019   2.5548   2.6739   3.0095   4.0020   4.1238
     4.3904   4.9241   5.0539   5.4832   6.1603   6.9711   8.0196   9.6478
    10.0352  14.7086

          k = 0.2500-0.0610-0.3264 (  3917 PWs)   bands (ev):

   -72.8842 -42.3109 -41.5291 -40.9643 -11.0423 -10.7635 -10.2952 -10.0932
     1.3352   1.6526   2.0958   2.4474   2.7324   3.3591   3.9211   4.2043
     4.3878   4.8561   4.9987   5.4690   6.1821   6.8947   8.0872   9.8110
     9.8605  15.0981

          k = 0.2501 0.0588-0.2353 (  3918 PWs)   bands (ev):

   -72.8842 -42.3109 -41.5291 -40.9643 -11.2278 -10.5510 -10.3439 -10.0546
     1.3235   1.6850   2.2023   2.5530   2.6744   3.0095   4.0006   4.1237
     4.3912   4.9255   5.0531   5.4833   6.1604   6.9721   8.0190   9.6484
    10.0345  14.7071

          k = 0.2498 0.0592-0.0478 (  3898 PWs)   bands (ev):

   -72.8842 -42.3108 -41.5291 -40.9643 -11.4223 -10.4542 -10.2583 -10.0018
     1.4212   1.8157   2.0458   2.4453   2.8237   2.8693   3.7118   3.9917
     4.2918   5.0267   5.3867   5.5669   6.0436   7.0715   7.9512   9.7585
    10.0805  13.5858

          k = 0.2506 0.0579-0.6103 (  3911 PWs)   bands (ev):

   -72.8842 -42.3109 -41.5291 -40.9643 -11.3235 -10.5809 -10.2131 -10.0351
     1.4024   1.6773   2.1271   2.4335   2.7812   3.0148   3.8390   4.0114
     4.2834   5.0103   5.2993   5.5169   6.1184   6.9815   8.0234   9.6912
    10.1051  13.9385

          k = 0.2503 0.0583-0.4228 (  3915 PWs)   bands (ev):

   -72.8842 -42.3109 -41.5291 -40.9643 -11.0423 -10.7631 -10.2954 -10.0934
     1.3352   1.6524   2.0955   2.4475   2.7322   3.3599   3.9225   4.2036
     4.3866   4.8557   4.9989   5.4695   6.1825   6.8950   8.0869   9.8112
     9.8597  15.0986

          k = 0.2492-0.2993 0.0541 (  3925 PWs)   bands (ev):

   -72.8842 -42.3109 -41.5291 -40.9643 -11.1570 -10.6494 -10.3425 -10.0395
     1.4707   1.8453   2.1099   2.4668   2.6740   3.1210   3.7074   4.0390
     4.3804   4.8967   5.1122   5.5375   6.1532   6.9825   8.0335   9.6634
    10.1179  14.7119

          k = 0.2490-0.2989 0.2416 (  3915 PWs)   bands (ev):

   -72.8842 -42.3108 -41.5291 -40.9644 -11.2889 -10.4727 -10.4048 -10.0048
     1.3853   1.9734   2.2630   2.5100   2.6650   2.8911   3.5506   3.9509
     4.4811   4.9108   5.1593   5.5954   6.1132   7.0869   7.9385   9.7069
    10.0836  14.4964

          k = 0.2497-0.3001-0.3209 (  3914 PWs)   bands (ev):

   -72.8842 -42.3109 -41.5291 -40.9643 -11.2717 -10.6438 -10.2247 -10.0235
     1.6104   1.7848   1.9357   2.5649   2.7889   3.0495   3.5701   3.8887
     4.1542   5.0720   5.3513   5.5760   6.1076   6.9859   8.0342   9.7198
    10.1884  13.8650

          k = 0.2495-0.2997-0.1334 (  3920 PWs)   bands (ev):

   -72.8842 -42.3109 -41.5291 -40.9643 -11.0636 -10.8667 -10.1956 -10.0537
     1.5703   1.7184   1.9737   2.5676   2.7540   3.1042   3.5133   4.1717
     4.2930   4.8417   5.3181   5.5454   6.1547   6.8951   8.0993   9.9090
     9.9448  14.6157

          k = 0.2495-0.1799-0.0424 (  3913 PWs)   bands (ev):

   -72.8842 -42.3109 -41.5291 -40.9643 -11.2711 -10.6441 -10.2249 -10.0236
     1.6108   1.7851   1.9356   2.5668   2.7882   3.0476   3.5701   3.8888
     4.1552   5.0724   5.3494   5.5765   6.1079   6.9861   8.0337   9.7205
    10.1877  13.8649

          k = 0.2493-0.1795 0.1451 (  3921 PWs)   bands (ev):

   -72.8842 -42.3108 -41.5291 -40.9644 -11.2885 -10.4730 -10.4050 -10.0047
     1.3851   1.9732   2.2634   2.5118   2.6646   2.8907   3.5498   3.9512
     4.4808   4.9101   5.1600   5.5951   6.1133   7.0865   7.9386   9.7067
    10.0837  14.4978

          k = 0.2500-0.1808-0.4174 (  3925 PWs)   bands (ev):

   -72.8842 -42.3109 -41.5291 -40.9643 -11.1573 -10.6495 -10.3423 -10.0393
     1.4701   1.8456   2.1097   2.4678   2.6731   3.1220   3.7058   4.0402
     4.3800   4.8975   5.1124   5.5370   6.1526   6.9816   8.0342   9.6630
    10.1191  14.7110

          k = 0.2497-0.1804-0.2299 (  3914 PWs)   bands (ev):

   -72.8842 -42.3109 -41.5291 -40.9643 -11.0635 -10.8670 -10.1954 -10.0536
     1.5706   1.7180   1.9741   2.5681   2.7538   3.1041   3.5121   4.1727
     4.2927   4.8414   5.3195   5.5446   6.1542   6.8947   8.0996   9.9087
     9.9458  14.6156

          k =-0.4996 0.1212 0.2777 (  3922 PWs)   bands (ev):

   -72.8819 -42.3078 -41.5235 -41.0031 -10.6349 -10.4399 -10.2798 -10.0952
     0.7127   1.2099   1.8414   2.2745   2.5897   3.4978   3.8964   4.2672
     4.5381   4.7668   4.8122   5.3328   5.9791   6.7983   7.9312   9.9984
    10.1071  15.3011

          k =-0.4998 0.1216 0.4652 (  3918 PWs)   bands (ev):

   -72.8818 -42.3078 -41.5235 -41.0031 -10.6798 -10.4566 -10.2653 -10.0542
     0.9157   1.2290   1.9722   2.3781   2.5986   3.4240   3.6780   4.2286
     4.4044   4.5193   4.9183   5.1686   5.9758   6.9660   7.9158   9.8119
    10.0675  15.8383

          k =-0.4991 0.1203-0.0973 (  3936 PWs)   bands (ev):

   -72.8818 -42.3078 -41.5235 -41.0031 -10.7173 -10.4765 -10.2490 -10.0193
     1.0785   1.3423   2.2128   2.4495   2.6528   3.1069   3.3952   4.1578
     4.3502   4.4905   4.9034   5.0397   5.9666   7.0945   7.9040   9.5971
    10.0824  16.0890

          k =-0.4993 0.2405 0.1813 (  3934 PWs)   bands (ev):

   -72.8819 -42.3078 -41.5235 -41.0031 -10.6348 -10.4405 -10.2791 -10.0956
     0.7786   1.1112   1.8487   2.2734   2.5768   3.6505   3.8615   4.2002
     4.5322   4.7539   4.8233   5.3279   5.9778   6.8015   7.9255  10.0126
    10.0826  15.6063

          k =-0.4995 0.2410 0.3688 (  3923 PWs)   bands (ev):

   -72.8818 -42.3078 -41.5235 -41.0031 -10.6794 -10.4592 -10.2628 -10.0546
     0.9006   1.2658   1.9656   2.2357   2.8004   3.3429   3.6746   4.2132
     4.4087   4.5200   4.9302   5.1771   5.9740   6.9710   7.9152   9.8005
    10.0809  15.6322

          k =-0.4988 0.2397-0.1937 (  3915 PWs)   bands (ev):

   -72.8818 -42.3078 -41.5235 -41.0031 -10.7195 -10.4707 -10.2543 -10.0174
     1.0931   1.3110   2.1807   2.5364   2.6927   3.0042   3.4662   4.1331
     4.2860   4.4841   4.8827   5.1022   5.9710   7.0993   7.9041   9.6068
    10.0744  16.0446

          k =-0.4991 0.2401-0.0062 (  3927 PWs)   bands (ev):

   -72.8818 -42.3078 -41.5235 -41.0031 -10.6791 -10.4590 -10.2630 -10.0549
     0.9008   1.2654   1.9643   2.2356   2.8005   3.3433   3.6751   4.2139
     4.4101   4.5202   4.9299   5.1764   5.9742   6.9707   7.9149   9.8004
    10.0810  15.6290

          k =-0.5002-0.1175 0.4707 (  3928 PWs)   bands (ev):

   -72.8819 -42.3078 -41.5235 -41.0031 -10.6350 -10.4396 -10.2800 -10.0952
     0.7137   1.2090   1.8405   2.2733   2.5874   3.4987   3.8988   4.2685
     4.5395   4.7664   4.8122   5.3325   5.9793   6.7985   7.9304   9.9967
    10.1078  15.2977

          k =-0.5004-0.1171 0.6582 (  3915 PWs)   bands (ev):

   -72.8818 -42.3078 -41.5235 -41.0031 -10.6802 -10.4566 -10.2652 -10.0539
     0.9169   1.2284   1.9718   2.3772   2.5966   3.4244   3.6789   4.2288
     4.4042   4.5206   4.9184   5.1690   5.9757   6.9666   7.9153   9.8111
    10.0676  15.8399

          k =-0.4997-0.1184 0.0957 (  3928 PWs)   bands (ev):

   -72.8818 -42.3078 -41.5235 -41.0031 -10.7179 -10.4767 -10.2487 -10.0188
     1.0801   1.3421   2.2125   2.4488   2.6509   3.1074   3.3954   4.1570
     4.3499   4.4908   4.9047   5.0401   5.9665   7.0954   7.9038   9.5960
    10.0826  16.0912

     the Fermi energy is     7.0471 ev

!    total energy              =    -520.62079227 Ry
     total all-electron energy =     -3720.874051 Ry
     estimated scf accuracy    <          6.9E-09 Ry
     smearing contrib. (-TS)   =      -0.00493089 Ry
     internal energy E=F+TS    =    -520.61586138 Ry

     The total energy is F=E-TS. E is the sum of the following terms:
     one-electron contribution =    -240.58254821 Ry
     hartree contribution      =     145.36628772 Ry
     xc contribution           =     -61.25008919 Ry
     ewald contribution        =    -185.65349720 Ry
     Hubbard energy            =       0.24481499 Ry
     one-center paw contrib.   =    -178.74082948 Ry

     convergence has been achieved in  10 iterations
     force_hub    :    170.55s CPU     25.24s WALL (      12 calls)
     dndtau       :    148.03s CPU     22.15s WALL (    9072 calls)
     dprojdtau    :     23.98s CPU      3.37s WALL (    9072 calls)
     calc_doverla :     78.77s CPU     11.89s WALL (    9072 calls)
     matel_dSdtau :    107.89s CPU     16.06s WALL (   18144 calls)

     Forces acting on atoms (cartesian axes, Ry/au):

     atom    1 type  1   force =     0.00015576   -0.00038082    0.00012642
     atom    2 type  1   force =     0.00001842    0.00014609    0.00008263
     atom    3 type  3   force =    -0.00000638    0.00046947   -0.00066277
     atom    4 type  2   force =    -0.00020243    0.00027262    0.00029544
     atom    5 type  2   force =     0.00012715    0.00012778    0.00083247
     atom    6 type  2   force =    -0.00003745   -0.00055128   -0.00077507
     atom    7 type  2   force =    -0.00005506   -0.00008387    0.00010088

     Total force =     0.001652     Total SCF correction =     0.000056


     Computing stress (Cartesian axis) and pressure

     stres_hub    :    488.83s CPU     64.13s WALL (      12 calls)
     dprojdepsilo :    400.75s CPU     52.12s WALL (    3888 calls)
     dprojdeps1   :     41.97s CPU      5.75s WALL (    3888 calls)
     dprojdeps2   :    231.30s CPU     29.17s WALL (    3888 calls)
     dprojdeps3   :    127.36s CPU     17.18s WALL (    3888 calls)
          total   stress  (Ry/bohr**3)                   (kbar)     P=        0.03
  -0.00000135  -0.00000099   0.00000036           -0.20       -0.15        0.05
  -0.00000099   0.00000355  -0.00000129           -0.15        0.52       -0.19
   0.00000036  -0.00000129  -0.00000155            0.05       -0.19       -0.23

     Energy error            =      6.4E-06 Ry
     Gradient error          =      8.3E-04 Ry/Bohr
     Cell gradient error     =      5.2E-01 kbar

     number of scf cycles    =  12
     number of bfgs steps    =  11

     enthalpy           old  =    -520.6207858414 Ry
     enthalpy           new  =    -520.6207922702 Ry

     CASE: enthalpy          _new < enthalpy          _old

     new trust radius        =       0.0029867017 bohr
     new conv_thr            =       0.0000000100 Ry

     new unit-cell volume =    487.64426 a.u.^3 (    72.26142 Ang^3 )
     density =      3.85010 g/cm^3

CELL_PARAMETERS (angstrom)
   2.962529912  -0.004616876   0.004209444
   1.492642432   6.184861711  -0.011953663
   2.962417869   3.178406162   3.939275793

ATOMIC_POSITIONS (angstrom)
Mg               3.4446495359        4.7984095033        1.4566479957
Mg               0.4773270427        1.1130828091        0.3390839169
Mn               4.9205016337        2.3332645559        2.5386261981
O                3.4491682990        6.9073954022        1.8223819013
O                4.9229112325        4.3079626027        2.8666212512
O                3.4417782210        2.7968401505        1.3657492232
O                4.9291589759        8.4116331245        3.9000985068



     Writing config-only to output data dir .\out\\qgan.save\ :
     XML data file
     NEW-OLD atomic charge density approx. for the potential
     New effective cutoffs (rho, wfc):  494.72   61.86

     Check: negative core charge=   -0.000002

     Atomic wfc used for Hubbard projectors are orthogonalized


     total cpu time spent up to now is      583.3 secs

     Self-consistent Calculation

     iteration #  1     ecut=    60.00 Ry     beta= 0.70
     Davidson diagonalization with overlap
     ethr =  1.00E-06,  avg # of iterations =  5.7

     =================== HUBBARD OCCUPATIONS ===================
     ------------------------ ATOM    3 ------------------------
     Tr[ns(  3)] =   5.23699
     eigenvalues:
       0.219  0.312  0.399  0.713  0.976
     eigenvectors (columns):
       0.536 -0.002 -0.208  0.001 -0.818
      -0.001  0.965  0.002  0.264 -0.003
      -0.805 -0.001 -0.417 -0.000 -0.422
       0.254  0.004 -0.885 -0.002  0.391
      -0.000  0.264  0.002 -0.965 -0.002
     occupation matrix ns (before diag.):
       0.733  0.002  0.277 -0.209  0.001
       0.002  0.340  0.001 -0.001 -0.102
       0.277  0.001  0.385 -0.058  0.001
      -0.209 -0.001 -0.058  0.476  0.000
       0.001 -0.102  0.001  0.000  0.685

     Number of occupied Hubbard levels =    5.2370

     Threshold (ethr) on eigenvalues was too large:
     Diagonalizing with lowered threshold

     Davidson diagonalization with overlap
     ethr =  1.36E-08,  avg # of iterations =  5.4

     total cpu time spent up to now is      590.3 secs

     total energy              =    -520.62079488 Ry
     estimated scf accuracy    <       0.00000652 Ry

     iteration #  2     ecut=    60.00 Ry     beta= 0.70
     Davidson diagonalization with overlap
     ethr =  1.52E-08,  avg # of iterations =  2.6

     total cpu time spent up to now is      593.5 secs

     total energy              =    -520.62079257 Ry
     estimated scf accuracy    <       0.00001657 Ry

     iteration #  3     ecut=    60.00 Ry     beta= 0.70
     Davidson diagonalization with overlap
     ethr =  1.52E-08,  avg # of iterations =  2.0

     total cpu time spent up to now is      596.9 secs

     total energy              =    -520.62079452 Ry
     estimated scf accuracy    <       0.00001420 Ry

     iteration #  4     ecut=    60.00 Ry     beta= 0.70
     Davidson diagonalization with overlap
     ethr =  1.52E-08,  avg # of iterations =  2.0

     total cpu time spent up to now is      600.1 secs

     total energy              =    -520.62079618 Ry
     estimated scf accuracy    <       0.00000318 Ry

     iteration #  5     ecut=    60.00 Ry     beta= 0.70
     Davidson diagonalization with overlap
     ethr =  7.40E-09,  avg # of iterations =  1.4

     total cpu time spent up to now is      603.2 secs

     total energy              =    -520.62079662 Ry
     estimated scf accuracy    <       0.00000019 Ry

     iteration #  6     ecut=    60.00 Ry     beta= 0.70
     Davidson diagonalization with overlap
     ethr =  4.34E-10,  avg # of iterations =  7.5

     total cpu time spent up to now is      607.0 secs

     total energy              =    -520.62079682 Ry
     estimated scf accuracy    <       0.00000005 Ry

     iteration #  7     ecut=    60.00 Ry     beta= 0.70
     Davidson diagonalization with overlap
     ethr =  1.20E-10,  avg # of iterations =  3.1

     total cpu time spent up to now is      610.3 secs

     total energy              =    -520.62079684 Ry
     estimated scf accuracy    <       0.00000002 Ry

     iteration #  8     ecut=    60.00 Ry     beta= 0.70
     Davidson diagonalization with overlap
     ethr =  5.07E-11,  avg # of iterations =  4.1

     total cpu time spent up to now is      613.8 secs

     total energy              =    -520.62079685 Ry
     estimated scf accuracy    <       0.00000001 Ry

     iteration #  9     ecut=    60.00 Ry     beta= 0.70
     Davidson diagonalization with overlap
     ethr =  3.06E-11,  avg # of iterations =  3.4

     total cpu time spent up to now is      617.0 secs

     End of self-consistent calculation

     =================== HUBBARD OCCUPATIONS ===================
     ------------------------ ATOM    3 ------------------------
     Tr[ns(  3)] =   5.23652
     eigenvalues:
       0.219  0.312  0.399  0.713  0.976
     eigenvectors (columns):
       0.536 -0.002 -0.208  0.000 -0.818
      -0.001  0.965  0.002  0.264 -0.003
      -0.805 -0.001 -0.417 -0.000 -0.421
       0.254  0.004 -0.885 -0.002  0.391
      -0.000  0.264  0.003 -0.965 -0.002
     occupation matrix ns (before diag.):
       0.734  0.002  0.276 -0.209  0.001
       0.002  0.340  0.001 -0.001 -0.102
       0.276  0.001  0.385 -0.058  0.001
      -0.209 -0.001 -0.058  0.476  0.000
       0.001 -0.102  0.001  0.000  0.685

     Number of occupied Hubbard levels =    5.2365

          k = 0.0000 0.0000 0.0000 (  3893 PWs)   bands (ev):

   -72.8885 -42.3154 -41.5362 -40.9263 -11.8813 -10.5526 -10.2833 -10.0561
     0.8170   1.4970   2.2395   2.7001   3.0726   3.9157   4.0988   4.3629
     4.6241   5.4171   5.6233   5.6739   6.0605   7.1392   7.9978  10.0767
    10.3384  11.7289

          k =-0.0003 0.0004 0.1876 (  3895 PWs)   bands (ev):

   -72.8885 -42.3154 -41.5362 -40.9263 -11.6848 -10.7080 -10.3537 -10.0939
     1.0139   1.7997   1.9804   3.0745   3.0815   3.8775   4.0219   4.4744
     4.5970   4.9617   5.5697   5.5980   5.7618   7.0968   8.1003   9.7866
    10.3802  12.8455

          k = 0.0005-0.0009-0.3752 (  3894 PWs)   bands (ev):

   -72.8884 -42.3155 -41.5362 -40.9263 -11.3541 -10.9830 -10.4253 -10.1467
     1.2718   1.8276   2.5177   3.0158   3.0705   3.4822   3.8715   4.5481
     4.5650   4.8316   5.4798   5.5177   5.6294   7.0534   8.1834   9.5445
    10.4228  14.4593

          k = 0.0003 0.1193-0.0965 (  3889 PWs)   bands (ev):

   -72.8885 -42.3154 -41.5362 -40.9263 -11.7762 -10.5795 -10.4198 -10.0392
     1.0401   1.5159   2.1956   2.7955   3.1078   3.9365   4.1140   4.3100
     4.6887   5.0203   5.4854   5.6259   6.0639   7.1635   7.9913  10.1413
    10.3783  12.5184

          k = 0.0001 0.1197 0.0911 (  3904 PWs)   bands (ev):

   -72.8885 -42.3154 -41.5362 -40.9263 -11.7294 -10.7894 -10.2465 -10.0488
     0.9508   1.7965   2.1075   2.8931   3.0401   3.8059   3.9159   4.4795
     4.6139   5.2190   5.5796   5.5820   5.8391   7.1338   8.0963   9.7923
    10.3394  12.4936

          k = 0.0009 0.1185-0.4717 (  3922 PWs)   bands (ev):

   -72.8884 -42.3155 -41.5362 -40.9263 -11.4048 -11.0622 -10.3252 -10.0896
     1.3089   1.6543   2.4303   3.0388   3.1528   3.5093   3.8985   4.3316
     4.5833   5.0790   5.4383   5.4948   5.6753   7.0899   8.1998   9.5548
    10.3819  13.8564

          k = 0.0006 0.1189-0.2841 (  3906 PWs)   bands (ev):

   -72.8884 -42.3154 -41.5362 -40.9263 -11.5318 -10.7879 -10.4835 -10.0792
     1.2372   1.7906   2.2206   2.9700   3.1074   3.8315   3.8951   4.4294
     4.5030   4.8982   5.4466   5.5454   5.7681   7.1238   8.1206   9.8646
    10.4200  14.0901

          k =-0.0006-0.2386 0.1930 (  3908 PWs)   bands (ev):

   -72.8884 -42.3154 -41.5363 -40.9263 -11.6421 -10.6781 -10.5094 -10.0257
     1.0192   1.8614   2.4011   2.8201   3.1455   3.6040   3.9607   4.2523
     4.5786   4.9925   5.4760   5.5772   6.0648   7.1879   7.9827  10.2101
    10.4177  13.8314

          k =-0.0009-0.2382 0.3806 (  3906 PWs)   bands (ev):

   -72.8884 -42.3154 -41.5362 -40.9263 -11.5904 -10.8595 -10.3701 -10.0367
     1.3382   1.7497   2.0057   2.9064   3.0709   3.8061   3.9375   4.4331
     4.7330   4.8805   5.4322   5.5277   5.8048   7.1592   8.1267   9.8755
    10.3794  13.4178

          k =-0.0001-0.2395-0.1822 (  3902 PWs)   bands (ev):

   -72.8885 -42.3155 -41.5362 -40.9263 -11.4477 -11.1311 -10.2302 -10.0456
     1.1557   1.8279   2.3148   3.0089   3.0311   3.7099   3.9274   4.0952
     4.5942   5.1790   5.4781   5.5546   5.7307   7.1246   8.1658   9.5447
    10.3409  13.7599

          k = 0.2497-0.0605-0.1390 (  3913 PWs)   bands (ev):

   -72.8856 -42.3124 -41.5306 -40.9653 -11.3238 -10.5807 -10.2130 -10.0390
     1.4037   1.6756   2.1274   2.4332   2.7796   3.0143   3.8364   4.0096
     4.2811   5.0107   5.3001   5.5128   6.1172   6.9806   8.0211   9.6906
    10.1035  13.9376

          k = 0.2495-0.0601 0.0486 (  3893 PWs)   bands (ev):

   -72.8856 -42.3123 -41.5306 -40.9653 -11.4226 -10.4535 -10.2587 -10.0057
     1.4212   1.8147   2.0447   2.4456   2.8253   2.8674   3.7109   3.9890
     4.2895   5.0277   5.3856   5.5631   6.0431   7.0702   7.9489   9.7572
    10.0792  13.5858

          k = 0.2503-0.0614-0.5142 (  3920 PWs)   bands (ev):

   -72.8856 -42.3124 -41.5307 -40.9653 -11.2276 -10.5504 -10.3452 -10.0582
     1.3229   1.6837   2.2019   2.5541   2.6738   3.0087   3.9995   4.1220
     4.3897   4.9241   5.0538   5.4793   6.1595   6.9694   8.0174   9.6464
    10.0344  14.7078

          k = 0.2500-0.0610-0.3266 (  3917 PWs)   bands (ev):

   -72.8856 -42.3124 -41.5307 -40.9653 -11.0419 -10.7632 -10.2962 -10.0969
     1.3347   1.6520   2.0960   2.4471   2.7318   3.3586   3.9197   4.2017
     4.3858   4.8559   4.9984   5.4653   6.1817   6.8931   8.0851   9.8109
     9.8581  15.0980

          k = 0.2501 0.0588-0.2355 (  3918 PWs)   bands (ev):

   -72.8856 -42.3124 -41.5307 -40.9653 -11.2277 -10.5504 -10.3449 -10.0583
     1.3233   1.6838   2.2022   2.5527   2.6741   3.0087   3.9987   4.1219
     4.3900   4.9250   5.0534   5.4793   6.1596   6.9703   8.0168   9.6472
    10.0336  14.7069

          k = 0.2498 0.0592-0.0479 (  3898 PWs)   bands (ev):

   -72.8856 -42.3123 -41.5306 -40.9653 -11.4227 -10.4535 -10.2585 -10.0057
     1.4212   1.8145   2.0446   2.4455   2.8241   2.8687   3.7108   3.9887
     4.2899   5.0270   5.3866   5.5633   6.0428   7.0704   7.9488   9.7573
    10.0792  13.5854

          k = 0.2506 0.0579-0.6107 (  3911 PWs)   bands (ev):

   -72.8856 -42.3124 -41.5306 -40.9653 -11.3238 -10.5805 -10.2132 -10.0390
     1.4031   1.6758   2.1272   2.4327   2.7811   3.0136   3.8366   4.0102
     4.2812   5.0102   5.2994   5.5134   6.1175   6.9802   8.0213   9.6898
    10.1039  13.9383

          k = 0.2503 0.0583-0.4231 (  3915 PWs)   bands (ev):

   -72.8856 -42.3124 -41.5307 -40.9653 -11.0419 -10.7630 -10.2963 -10.0970
     1.3347   1.6519   2.0960   2.4473   2.7315   3.3589   3.9206   4.2013
     4.3851   4.8557   4.9984   5.4656   6.1819   6.8933   8.0849   9.8113
     9.8574  15.0982

          k = 0.2491-0.2992 0.0541 (  3925 PWs)   bands (ev):

   -72.8856 -42.3124 -41.5307 -40.9653 -11.1572 -10.6491 -10.3429 -10.0432
     1.4702   1.8448   2.1104   2.4657   2.6735   3.1206   3.7061   4.0374
     4.3782   4.8964   5.1111   5.5335   6.1524   6.9809   8.0317   9.6624
    10.1176  14.7103

          k = 0.2488-0.2987 0.2417 (  3915 PWs)   bands (ev):

   -72.8856 -42.3123 -41.5307 -40.9653 -11.2891 -10.4731 -10.4044 -10.0085
     1.3843   1.9732   2.2630   2.5096   2.6652   2.8898   3.5492   3.9486
     4.4799   4.9103   5.1588   5.5914   6.1124   7.0853   7.9365   9.7056
    10.0834  14.4956

          k = 0.2496-0.3000-0.3211 (  3914 PWs)   bands (ev):

   -72.8856 -42.3124 -41.5306 -40.9653 -11.2720 -10.6433 -10.2250 -10.0273
     1.6108   1.7840   1.9355   2.5654   2.7881   3.0482   3.5681   3.8879
     4.1514   5.0704   5.3509   5.5727   6.1072   6.9847   8.0324   9.7186
    10.1876  13.8647

          k = 0.2494-0.2996-0.1335 (  3920 PWs)   bands (ev):

   -72.8856 -42.3124 -41.5306 -40.9653 -11.0637 -10.8665 -10.1959 -10.0574
     1.5708   1.7180   1.9743   2.5672   2.7531   3.1037   3.5102   4.1690
     4.2908   4.8416   5.3173   5.5421   6.1540   6.8937   8.0979   9.9088
     9.9429  14.6155

          k = 0.2494-0.1799-0.0425 (  3913 PWs)   bands (ev):

   -72.8856 -42.3124 -41.5306 -40.9653 -11.2717 -10.6435 -10.2251 -10.0274
     1.6112   1.7843   1.9356   2.5665   2.7875   3.0469   3.5681   3.8877
     4.1522   5.0704   5.3500   5.5730   6.1072   6.9850   8.0320   9.7193
    10.1870  13.8647

          k = 0.2492-0.1794 0.1451 (  3921 PWs)   bands (ev):

   -72.8856 -42.3123 -41.5307 -40.9653 -11.2890 -10.4733 -10.4045 -10.0085
     1.3842   1.9731   2.2632   2.5108   2.6646   2.8897   3.5486   3.9489
     4.4799   4.9099   5.1592   5.5912   6.1124   7.0851   7.9365   9.7055
    10.0835  14.4963

          k = 0.2500-0.1807-0.4176 (  3925 PWs)   bands (ev):

   -72.8856 -42.3124 -41.5307 -40.9653 -11.1574 -10.6491 -10.3428 -10.0430
     1.4695   1.8449   2.1104   2.4663   2.6733   3.1212   3.7052   4.0382
     4.3778   4.8968   5.1114   5.5333   6.1521   6.9800   8.0323   9.6618
    10.1185  14.7102

          k = 0.2497-0.1803-0.2301 (  3914 PWs)   bands (ev):

   -72.8856 -42.3124 -41.5306 -40.9653 -11.0637 -10.8667 -10.1958 -10.0573
     1.5709   1.7176   1.9746   2.5673   2.7532   3.1037   3.5095   4.1698
     4.2905   4.8415   5.3182   5.5415   6.1538   6.8935   8.0981   9.9084
     9.9437  14.6154

          k =-0.4995 0.1211 0.2779 (  3922 PWs)   bands (ev):

   -72.8833 -42.3094 -41.5251 -41.0039 -10.6345 -10.4394 -10.2802 -10.1008
     0.7114   1.2103   1.8411   2.2730   2.5869   3.4985   3.8985   4.2676
     4.5360   4.7655   4.8096   5.3323   5.9763   6.7969   7.9296   9.9974
    10.1055  15.2998

          k =-0.4998 0.1215 0.4655 (  3918 PWs)   bands (ev):

   -72.8832 -42.3093 -41.5251 -41.0039 -10.6801 -10.4562 -10.2655 -10.0593
     0.9146   1.2295   1.9717   2.3763   2.5970   3.4242   3.6781   4.2287
     4.4033   4.5182   4.9168   5.1669   5.9729   6.9649   7.9140   9.8129
    10.0639  15.8389

          k =-0.4990 0.1202-0.0973 (  3936 PWs)   bands (ev):

   -72.8832 -42.3093 -41.5251 -41.0040 -10.7181 -10.4763 -10.2488 -10.0240
     1.0781   1.3424   2.2137   2.4478   2.6503   3.1050   3.3961   4.1574
     4.3491   4.4904   4.9015   5.0381   5.9638   7.0936   7.9019   9.5978
    10.0789  16.0892

          k =-0.4992 0.2404 0.1814 (  3934 PWs)   bands (ev):

   -72.8833 -42.3094 -41.5251 -41.0039 -10.6343 -10.4401 -10.2793 -10.1013
     0.7768   1.1119   1.8486   2.2720   2.5755   3.6511   3.8614   4.2012
     4.5295   4.7527   4.8207   5.3276   5.9749   6.8002   7.9241  10.0119
    10.0809  15.6063

          k =-0.4994 0.2408 0.3690 (  3923 PWs)   bands (ev):

   -72.8832 -42.3093 -41.5251 -41.0040 -10.6795 -10.4587 -10.2630 -10.0598
     0.8993   1.2663   1.9648   2.2344   2.7991   3.3427   3.6750   4.2136
     4.4077   4.5190   4.9281   5.1755   5.9712   6.9698   7.9134   9.8016
    10.0775  15.6310

          k =-0.4986 0.2395-0.1938 (  3915 PWs)   bands (ev):

   -72.8832 -42.3093 -41.5251 -41.0040 -10.7202 -10.4703 -10.2545 -10.0221
     1.0923   1.3113   2.1812   2.5352   2.6907   3.0028   3.4668   4.1333
     4.2841   4.4838   4.8813   5.1001   5.9682   7.0982   7.9020   9.6080
    10.0709  16.0448

          k =-0.4989 0.2400-0.0062 (  3927 PWs)   bands (ev):

   -72.8832 -42.3093 -41.5251 -41.0040 -10.6794 -10.4587 -10.2630 -10.0600
     0.8996   1.2659   1.9641   2.2344   2.7994   3.3428   3.6754   4.2135
     4.4087   4.5193   4.9277   5.1751   5.9714   6.9697   7.9133   9.8013
    10.0777  15.6290

          k =-0.5001-0.1175 0.4709 (  3928 PWs)   bands (ev):

   -72.8833 -42.3094 -41.5251 -41.0039 -10.6346 -10.4393 -10.2801 -10.1009
     0.7122   1.2094   1.8406   2.2728   2.5857   3.4992   3.8995   4.2680
     4.5367   4.7653   4.8095   5.3322   5.9764   6.7972   7.9292   9.9961
    10.1063  15.2976

          k =-0.5004-0.1171 0.6585 (  3915 PWs)   bands (ev):

   -72.8832 -42.3093 -41.5251 -41.0039 -10.6803 -10.4561 -10.2654 -10.0592
     0.9154   1.2292   1.9715   2.3758   2.5958   3.4245   3.6788   4.2284
     4.4034   4.5190   4.9168   5.1671   5.9729   6.9654   7.9136   9.8124
    10.0641  15.8393

          k =-0.4996-0.1184 0.0958 (  3928 PWs)   bands (ev):

   -72.8832 -42.3093 -41.5251 -41.0040 -10.7184 -10.4763 -10.2488 -10.0237
     1.0789   1.3423   2.2135   2.4476   2.6490   3.1055   3.3961   4.1571
     4.3486   4.4907   4.9021   5.0386   5.9638   7.0942   7.9017   9.5975
    10.0790  16.0908

     the Fermi energy is     7.0459 ev

!    total energy              =    -520.62079686 Ry
     total all-electron energy =     -3720.874055 Ry
     estimated scf accuracy    <          9.8E-09 Ry
     smearing contrib. (-TS)   =      -0.00492440 Ry
     internal energy E=F+TS    =    -520.61587246 Ry

     The total energy is F=E-TS. E is the sum of the following terms:
     one-electron contribution =    -240.57242894 Ry
     hartree contribution      =     145.35920802 Ry
     xc contribution           =     -61.24975218 Ry
     ewald contribution        =    -185.65686808 Ry
     Hubbard energy            =       0.24480693 Ry
     one-center paw contrib.   =    -178.74083822 Ry

     convergence has been achieved in   9 iterations
     force_hub    :    186.27s CPU     27.63s WALL (      13 calls)
     dndtau       :    161.88s CPU     24.27s WALL (    9828 calls)
     dprojdtau    :     25.69s CPU      3.69s WALL (    9828 calls)
     calc_doverla :     86.08s CPU     13.04s WALL (    9828 calls)
     matel_dSdtau :    118.33s CPU     17.59s WALL (   19656 calls)

     Forces acting on atoms (cartesian axes, Ry/au):

     atom    1 type  1   force =     0.00002809   -0.00028686    0.00001363
     atom    2 type  1   force =     0.00001936    0.00002679    0.00027160
     atom    3 type  3   force =     0.00001131    0.00008998   -0.00056735
     atom    4 type  2   force =    -0.00011959    0.00032808    0.00023679
     atom    5 type  2   force =     0.00005858    0.00039706    0.00055852
     atom    6 type  2   force =    -0.00004362   -0.00032919   -0.00049979
     atom    7 type  2   force =     0.00004587   -0.00022586   -0.00001340

     Total force =     0.001246     Total SCF correction =     0.000066


     Computing stress (Cartesian axis) and pressure

     stres_hub    :    529.83s CPU     69.97s WALL (      13 calls)
     dprojdepsilo :    434.22s CPU     56.93s WALL (    4212 calls)
     dprojdeps1   :     45.97s CPU      6.23s WALL (    4212 calls)
     dprojdeps2   :    249.59s CPU     31.86s WALL (    4212 calls)
     dprojdeps3   :    138.53s CPU     18.82s WALL (    4212 calls)
          total   stress  (Ry/bohr**3)                   (kbar)     P=       -0.12
  -0.00000586  -0.00000054  -0.00000008           -0.86       -0.08       -0.01
  -0.00000054   0.00000232  -0.00000132           -0.08        0.34       -0.19
  -0.00000008  -0.00000132   0.00000100           -0.01       -0.19        0.15

     Energy error            =      4.6E-06 Ry
     Gradient error          =      5.7E-04 Ry/Bohr
     Cell gradient error     =      8.6E-01 kbar

     number of scf cycles    =  13
     number of bfgs steps    =  12

     enthalpy           old  =    -520.6207922702 Ry
     enthalpy           new  =    -520.6207968595 Ry

     CASE: enthalpy          _new < enthalpy          _old

     new trust radius        =       0.0021336893 bohr
     new conv_thr            =       0.0000000100 Ry

     new unit-cell volume =    487.64474 a.u.^3 (    72.26149 Ang^3 )
     density =      3.85009 g/cm^3

CELL_PARAMETERS (angstrom)
   2.962462933  -0.004867407   0.004335500
   1.492071328   6.186256632  -0.012254684
   2.962245733   3.178710397   3.938339639

ATOMIC_POSITIONS (angstrom)
Mg               3.4446491645        4.7987864038        1.4561411785
Mg               0.4772841389        1.1129919472        0.3392721367
Mn               4.9201580476        2.3338343044        2.5375227788
O                3.4481534522        6.9090895816        1.8224432717
O                4.9228162434        4.3081925599        2.8664915084
O                3.4415216132        2.7969271375        1.3643224692
O                4.9282890941        8.4133247265        3.8991173131



     Writing config-only to output data dir .\out\\qgan.save\ :
     XML data file
     NEW-OLD atomic charge density approx. for the potential
     New effective cutoffs (rho, wfc):  494.93   61.89

     Check: negative core charge=   -0.000002

     Atomic wfc used for Hubbard projectors are orthogonalized


     total cpu time spent up to now is      628.5 secs

     Self-consistent Calculation

     iteration #  1     ecut=    60.00 Ry     beta= 0.70
     Davidson diagonalization with overlap
     ethr =  1.00E-06,  avg # of iterations =  3.1

     =================== HUBBARD OCCUPATIONS ===================
     ------------------------ ATOM    3 ------------------------
     Tr[ns(  3)] =   5.23680
     eigenvalues:
       0.219  0.312  0.399  0.713  0.976
     eigenvectors (columns):
       0.536 -0.002 -0.208  0.000 -0.818
      -0.001  0.965  0.002  0.264 -0.003
      -0.805 -0.001 -0.417 -0.000 -0.421
       0.254  0.004 -0.885 -0.002  0.391
      -0.000  0.264  0.003 -0.965 -0.002
     occupation matrix ns (before diag.):
       0.734  0.002  0.276 -0.209  0.001
       0.002  0.339  0.001 -0.001 -0.102
       0.276  0.001  0.385 -0.058  0.001
      -0.209 -0.001 -0.058  0.476  0.000
       0.001 -0.102  0.001  0.000  0.685

     Number of occupied Hubbard levels =    5.2368

     Threshold (ethr) on eigenvalues was too large:
     Diagonalizing with lowered threshold

     Davidson diagonalization with overlap
     ethr =  1.25E-08,  avg # of iterations =  8.3

     total cpu time spent up to now is      635.8 secs

     total energy              =    -520.62079877 Ry
     estimated scf accuracy    <       0.00000304 Ry

     iteration #  2     ecut=    60.00 Ry     beta= 0.70
     Davidson diagonalization with overlap
     ethr =  7.08E-09,  avg # of iterations =  2.0

     total cpu time spent up to now is      638.2 secs

     total energy              =    -520.62079780 Ry
     estimated scf accuracy    <       0.00000538 Ry

     iteration #  3     ecut=    60.00 Ry     beta= 0.70
     Davidson diagonalization with overlap
     ethr =  7.08E-09,  avg # of iterations =  2.0

     total cpu time spent up to now is      640.5 secs

     total energy              =    -520.62079837 Ry
     estimated scf accuracy    <       0.00000810 Ry

     iteration #  4     ecut=    60.00 Ry     beta= 0.70
     Davidson diagonalization with overlap
     ethr =  7.08E-09,  avg # of iterations =  2.0

     total cpu time spent up to now is      642.9 secs

     total energy              =    -520.62079916 Ry
     estimated scf accuracy    <       0.00000165 Ry

     iteration #  5     ecut=    60.00 Ry     beta= 0.70
     Davidson diagonalization with overlap
     ethr =  3.83E-09,  avg # of iterations =  1.1

     total cpu time spent up to now is      645.1 secs

     total energy              =    -520.62079940 Ry
     estimated scf accuracy    <       0.00000003 Ry

     iteration #  6     ecut=    60.00 Ry     beta= 0.70
     Davidson diagonalization with overlap
     ethr =  7.28E-11,  avg # of iterations = 11.0

     total cpu time spent up to now is      649.7 secs

     total energy              =    -520.62079946 Ry
     estimated scf accuracy    <       0.00000006 Ry

     iteration #  7     ecut=    60.00 Ry     beta= 0.70
     Davidson diagonalization with overlap
     ethr =  7.28E-11,  avg # of iterations =  2.0

     total cpu time spent up to now is      652.4 secs

     End of self-consistent calculation

     =================== HUBBARD OCCUPATIONS ===================
     ------------------------ ATOM    3 ------------------------
     Tr[ns(  3)] =   5.23658
     eigenvalues:
       0.219  0.312  0.399  0.713  0.976
     eigenvectors (columns):
       0.535 -0.002 -0.208  0.000 -0.819
      -0.001  0.965  0.001  0.263 -0.003
      -0.806 -0.001 -0.417 -0.000 -0.421
       0.254  0.004 -0.885 -0.002  0.391
      -0.000  0.263  0.003 -0.965 -0.002
     occupation matrix ns (before diag.):
       0.734  0.002  0.276 -0.209  0.001
       0.002  0.339  0.001 -0.001 -0.102
       0.276  0.001  0.384 -0.058  0.001
      -0.209 -0.001 -0.058  0.476  0.000
       0.001 -0.102  0.001  0.000  0.685

     Number of occupied Hubbard levels =    5.2366

          k = 0.0000 0.0000 0.0000 (  3893 PWs)   bands (ev):

   -72.8890 -42.3161 -41.5369 -40.9263 -11.8813 -10.5524 -10.2832 -10.0584
     0.8176   1.4948   2.2397   2.7003   3.0739   3.9149   4.0967   4.3630
     4.6258   5.4160   5.6225   5.6723   6.0598   7.1392   7.9967  10.0768
    10.3375  11.7297

          k =-0.0003 0.0004 0.1876 (  3895 PWs)   bands (ev):

   -72.8889 -42.3162 -41.5369 -40.9263 -11.6847 -10.7075 -10.3539 -10.0962
     1.0147   1.7994   1.9785   3.0758   3.0818   3.8769   4.0211   4.4744
     4.5964   4.9623   5.5678   5.5963   5.7610   7.0969   8.0994   9.7864
    10.3792  12.8465

          k = 0.0005-0.0009-0.3753 (  3894 PWs)   bands (ev):

   -72.8888 -42.3162 -41.5369 -40.9263 -11.3541 -10.9821 -10.4257 -10.1492
     1.2724   1.8282   2.5172   3.0145   3.0719   3.4812   3.8710   4.5489
     4.5650   4.8303   5.4785   5.5156   5.6283   7.0537   8.1825   9.5442
    10.4218  14.4622

          k = 0.0003 0.1193-0.0965 (  3889 PWs)   bands (ev):

   -72.8889 -42.3161 -41.5369 -40.9263 -11.7763 -10.5796 -10.4192 -10.0416
     1.0403   1.5146   2.1955   2.7954   3.1090   3.9358   4.1132   4.3101
     4.6884   5.0208   5.4833   5.6244   6.0632   7.1635   7.9905  10.1419
    10.3773  12.5192

          k = 0.0001 0.1197 0.0911 (  3904 PWs)   bands (ev):

   -72.8890 -42.3162 -41.5369 -40.9263 -11.7293 -10.7892 -10.2465 -10.0511
     0.9518   1.7958   2.1067   2.8930   3.0414   3.8049   3.9153   4.4796
     4.6136   5.2168   5.5780   5.5815   5.8387   7.1338   8.0956   9.7923
    10.3385  12.4944

          k = 0.0009 0.1184-0.4718 (  3922 PWs)   bands (ev):

   -72.8889 -42.3162 -41.5369 -40.9263 -11.4047 -11.0619 -10.3253 -10.0920
     1.3099   1.6548   2.4300   3.0402   3.1511   3.5085   3.8980   4.3303
     4.5832   5.0784   5.4372   5.4929   5.6746   7.0900   8.1992   9.5547
    10.3810  13.8565

          k = 0.0006 0.1188-0.2842 (  3906 PWs)   bands (ev):

   -72.8889 -42.3162 -41.5369 -40.9263 -11.5319 -10.7873 -10.4836 -10.0816
     1.2376   1.7900   2.2202   2.9698   3.1087   3.8312   3.8946   4.4293
     4.5026   4.8977   5.4448   5.5437   5.7673   7.1239   8.1199   9.8649
    10.4190  14.0918

          k =-0.0007-0.2386 0.1930 (  3908 PWs)   bands (ev):

   -72.8889 -42.3161 -41.5369 -40.9263 -11.6423 -10.6785 -10.5083 -10.0280
     1.0185   1.8614   2.4006   2.8196   3.1466   3.6041   3.9602   4.2523
     4.5776   4.9928   5.4741   5.5758   6.0642   7.1879   7.9821  10.2111
    10.4167  13.8326

          k =-0.0009-0.2381 0.3807 (  3906 PWs)   bands (ev):

   -72.8889 -42.3162 -41.5369 -40.9263 -11.5905 -10.8592 -10.3700 -10.0390
     1.3392   1.7488   2.0057   2.9059   3.0722   3.8052   3.9370   4.4331
     4.7322   4.8792   5.4309   5.5261   5.8044   7.1592   8.1263   9.8759
    10.3784  13.4184

          k =-0.0001-0.2394-0.1822 (  3902 PWs)   bands (ev):

   -72.8890 -42.3162 -41.5369 -40.9263 -11.4474 -11.1311 -10.2302 -10.0479
     1.1569   1.8288   2.3149   3.0103   3.0285   3.7083   3.9268   4.0942
     4.5941   5.1774   5.4764   5.5532   5.7311   7.1247   8.1654   9.5448
    10.3401  13.7593

          k = 0.2497-0.0605-0.1390 (  3913 PWs)   bands (ev):

   -72.8861 -42.3131 -41.5313 -40.9653 -11.3238 -10.5802 -10.2132 -10.0412
     1.4045   1.6751   2.1274   2.4326   2.7799   3.0139   3.8355   4.0088
     4.2801   5.0105   5.2996   5.5108   6.1174   6.9802   8.0201   9.6903
    10.1032  13.9393

          k = 0.2495-0.0601 0.0486 (  3893 PWs)   bands (ev):

   -72.8861 -42.3131 -41.5313 -40.9653 -11.4227 -10.4531 -10.2587 -10.0078
     1.4217   1.8136   2.0448   2.4456   2.8258   2.8673   3.7105   3.9875
     4.2885   5.0278   5.3856   5.5606   6.0432   7.0700   7.9477   9.7573
    10.0788  13.5868

          k = 0.2503-0.0614-0.5143 (  3920 PWs)   bands (ev):

   -72.8861 -42.3131 -41.5314 -40.9653 -11.2277 -10.5495 -10.3454 -10.0604
     1.3234   1.6833   2.2015   2.5539   2.6742   3.0085   3.9982   4.1216
     4.3886   4.9240   5.0543   5.4766   6.1599   6.9688   8.0163   9.6461
    10.0343  14.7092

          k = 0.2500-0.0610-0.3266 (  3917 PWs)   bands (ev):

   -72.8861 -42.3132 -41.5314 -40.9652 -11.0421 -10.7623 -10.2965 -10.0993
     1.3352   1.6520   2.0959   2.4469   2.7321   3.3579   3.9189   4.2006
     4.3845   4.8555   4.9992   5.4625   6.1824   6.8924   8.0840   9.8109
     9.8576  15.1005

          k = 0.2501 0.0588-0.2355 (  3918 PWs)   bands (ev):

   -72.8861 -42.3131 -41.5314 -40.9653 -11.2278 -10.5496 -10.3453 -10.0605
     1.3239   1.6833   2.2017   2.5528   2.6744   3.0085   3.9976   4.1215
     4.3887   4.9245   5.0542   5.4765   6.1600   6.9696   8.0157   9.6470
    10.0335  14.7087

          k = 0.2498 0.0592-0.0479 (  3898 PWs)   bands (ev):

   -72.8861 -42.3131 -41.5313 -40.9653 -11.4228 -10.4530 -10.2587 -10.0078
     1.4217   1.8135   2.0446   2.4456   2.8250   2.8682   3.7105   3.9874
     4.2885   5.0274   5.3860   5.5607   6.0430   7.0701   7.9476   9.7574
    10.0788  13.5865

          k = 0.2506 0.0579-0.6108 (  3911 PWs)   bands (ev):

   -72.8861 -42.3131 -41.5313 -40.9653 -11.3238 -10.5801 -10.2133 -10.0411
     1.4042   1.6752   2.1273   2.4323   2.7808   3.0136   3.8357   4.0093
     4.2801   5.0102   5.2990   5.5111   6.1177   6.9799   8.0203   9.6895
    10.1037  13.9397

          k = 0.2504 0.0583-0.4232 (  3915 PWs)   bands (ev):

   -72.8861 -42.3132 -41.5314 -40.9652 -11.0421 -10.7622 -10.2965 -10.0993
     1.3353   1.6519   2.0960   2.4470   2.7319   3.3581   3.9194   4.2004
     4.3841   4.8555   4.9990   5.4628   6.1825   6.8926   8.0839   9.8114
     9.8569  15.1005

          k = 0.2491-0.2991 0.0540 (  3925 PWs)   bands (ev):

   -72.8861 -42.3131 -41.5314 -40.9653 -11.1575 -10.6485 -10.3427 -10.0454
     1.4703   1.8447   2.1104   2.4654   2.6736   3.1208   3.7058   4.0367
     4.3763   4.8963   5.1107   5.5308   6.1528   6.9802   8.0308   9.6624
    10.1178  14.7108

          k = 0.2488-0.2986 0.2417 (  3915 PWs)   bands (ev):

   -72.8861 -42.3131 -41.5314 -40.9653 -11.2893 -10.4734 -10.4036 -10.0106
     1.3840   1.9728   2.2629   2.5101   2.6656   2.8893   3.5491   3.9479
     4.4784   4.9101   5.1587   5.5887   6.1126   7.0847   7.9355   9.7058
    10.0835  14.4966

          k = 0.2496-0.2999-0.3212 (  3914 PWs)   bands (ev):

   -72.8861 -42.3131 -41.5313 -40.9653 -11.2720 -10.6430 -10.2249 -10.0296
     1.6116   1.7835   1.9359   2.5653   2.7881   3.0480   3.5674   3.8877
     4.1496   5.0696   5.3501   5.5705   6.1075   6.9843   8.0316   9.7185
    10.1875  13.8659

          k = 0.2493-0.2995-0.1336 (  3920 PWs)   bands (ev):

   -72.8861 -42.3132 -41.5313 -40.9653 -11.0638 -10.8662 -10.1958 -10.0597
     1.5717   1.7182   1.9746   2.5667   2.7529   3.1037   3.5086   4.1680
     4.2896   4.8414   5.3164   5.5400   6.1543   6.8932   8.0973   9.9090
     9.9425  14.6175

          k = 0.2494-0.1798-0.0425 (  3913 PWs)   bands (ev):

   -72.8861 -42.3131 -41.5313 -40.9653 -11.2719 -10.6431 -10.2249 -10.0296
     1.6120   1.7837   1.9360   2.5659   2.7876   3.0470   3.5675   3.8872
     4.1502   5.0696   5.3497   5.5707   6.1075   6.9846   8.0313   9.7192
    10.1870  13.8659

          k = 0.2491-0.1794 0.1452 (  3921 PWs)   bands (ev):

   -72.8861 -42.3131 -41.5314 -40.9653 -11.2892 -10.4734 -10.4036 -10.0106
     1.3839   1.9726   2.2630   2.5110   2.6650   2.8893   3.5487   3.9480
     4.4785   4.9098   5.1589   5.5886   6.1126   7.0845   7.9356   9.7056
    10.0835  14.4969

          k = 0.2500-0.1807-0.4178 (  3925 PWs)   bands (ev):

   -72.8861 -42.3131 -41.5314 -40.9653 -11.1576 -10.6485 -10.3427 -10.0453
     1.4696   1.8448   2.1104   2.4658   2.6736   3.1213   3.7054   4.0373
     4.3759   4.8965   5.1109   5.5307   6.1526   6.9795   8.0314   9.6617
    10.1186  14.7110

          k = 0.2497-0.1802-0.2301 (  3914 PWs)   bands (ev):

   -72.8861 -42.3132 -41.5313 -40.9652 -11.0637 -10.8663 -10.1957 -10.0596
     1.5718   1.7180   1.9747   2.5667   2.7532   3.1037   3.5082   4.1685
     4.2893   4.8414   5.3169   5.5396   6.1542   6.8931   8.0975   9.9086
     9.9431  14.6174

          k =-0.4995 0.1210 0.2780 (  3922 PWs)   bands (ev):

   -72.8837 -42.3101 -41.5258 -41.0039 -10.6348 -10.4378 -10.2813 -10.1026
     0.7109   1.2108   1.8410   2.2721   2.5856   3.4985   3.8997   4.2679
     4.5358   4.7639   4.8076   5.3315   5.9762   6.7965   7.9286   9.9973
    10.1054  15.2997

          k =-0.4998 0.1215 0.4657 (  3918 PWs)   bands (ev):

   -72.8837 -42.3101 -41.5258 -41.0039 -10.6806 -10.4548 -10.2663 -10.0609
     0.9143   1.2301   1.9712   2.3754   2.5963   3.4243   3.6781   4.2289
     4.4028   4.5177   4.9152   5.1652   5.9729   6.9647   7.9129   9.8134
    10.0633  15.8407

          k =-0.4989 0.1201-0.0973 (  3936 PWs)   bands (ev):

   -72.8837 -42.3101 -41.5258 -41.0039 -10.7187 -10.4751 -10.2494 -10.0254
     1.0782   1.3427   2.2139   2.4466   2.6496   3.1036   3.3973   4.1564
     4.3492   4.4909   4.8992   5.0364   5.9637   7.0935   7.9007   9.5981
    10.0784  16.0902

          k =-0.4992 0.2403 0.1815 (  3934 PWs)   bands (ev):

   -72.8837 -42.3101 -41.5258 -41.0039 -10.6346 -10.4385 -10.2804 -10.1031
     0.7759   1.1127   1.8486   2.2714   2.5747   3.6512   3.8614   4.2019
     4.5285   4.7516   4.8186   5.3270   5.9749   6.7998   7.9233  10.0119
    10.0808  15.6079

          k =-0.4994 0.2407 0.3691 (  3923 PWs)   bands (ev):

   -72.8837 -42.3101 -41.5258 -41.0039 -10.6800 -10.4573 -10.2638 -10.0615
     0.8988   1.2670   1.9642   2.2339   2.7984   3.3423   3.6754   4.2140
     4.4073   4.5186   4.9261   5.1737   5.9712   6.9695   7.9123   9.8022
    10.0769  15.6312

          k =-0.4986 0.2394-0.1938 (  3915 PWs)   bands (ev):

   -72.8837 -42.3101 -41.5258 -41.0039 -10.7207 -10.4691 -10.2552 -10.0236
     1.0922   1.3116   2.1811   2.5347   2.6899   3.0018   3.4678   4.1328
     4.2833   4.4842   4.8796   5.0981   5.9682   7.0980   7.9008   9.6085
    10.0703  16.0464

          k =-0.4989 0.2399-0.0061 (  3927 PWs)   bands (ev):

   -72.8837 -42.3101 -41.5258 -41.0039 -10.6799 -10.4574 -10.2638 -10.0616
     0.8992   1.2666   1.9638   2.2338   2.7988   3.3424   3.6757   4.2135
     4.4079   4.5189   4.9258   5.1736   5.9713   6.9695   7.9123   9.8017
    10.0771  15.6301

          k =-0.5002-0.1175 0.4711 (  3928 PWs)   bands (ev):

   -72.8837 -42.3101 -41.5258 -41.0039 -10.6348 -10.4378 -10.2812 -10.1027
     0.7115   1.2100   1.8407   2.2723   2.5851   3.4990   3.9000   4.2678
     4.5362   4.7638   4.8074   5.3315   5.9763   6.7967   7.9284   9.9962
    10.1062  15.2984

          k =-0.5004-0.1171 0.6587 (  3915 PWs)   bands (ev):

   -72.8837 -42.3101 -41.5258 -41.0039 -10.6807 -10.4548 -10.2663 -10.0608
     0.9147   1.2299   1.9711   2.3752   2.5957   3.4245   3.6786   4.2284
     4.4029   4.5181   4.9152   5.1653   5.9729   6.9651   7.9126   9.8131
    10.0634  15.8406

          k =-0.4996-0.1184 0.0958 (  3928 PWs)   bands (ev):

   -72.8837 -42.3101 -41.5258 -41.0039 -10.7189 -10.4750 -10.2495 -10.0253
     1.0785   1.3427   2.2138   2.4466   2.6488   3.1040   3.3971   4.1563
     4.3487   4.4912   4.8994   5.0368   5.9638   7.0939   7.9005   9.5983
    10.0784  16.0913

     the Fermi energy is     7.0456 ev

!    total energy              =    -520.62079947 Ry
     total all-electron energy =     -3720.874058 Ry
     estimated scf accuracy    <          9.6E-09 Ry
     smearing contrib. (-TS)   =      -0.00491945 Ry
     internal energy E=F+TS    =    -520.61588002 Ry

     The total energy is F=E-TS. E is the sum of the following terms:
     one-electron contribution =    -240.56918766 Ry
     hartree contribution      =     145.35689499 Ry
     xc contribution           =     -61.24969226 Ry
     ewald contribution        =    -185.65782077 Ry
     Hubbard energy            =       0.24479485 Ry
     one-center paw contrib.   =    -178.74086917 Ry

     convergence has been achieved in   7 iterations
     force_hub    :    200.50s CPU     29.93s WALL (      14 calls)
     dndtau       :    174.55s CPU     26.30s WALL (   10584 calls)
     dprojdtau    :     26.86s CPU      3.98s WALL (   10584 calls)
     calc_doverla :     93.22s CPU     14.17s WALL (   10584 calls)
     matel_dSdtau :    127.75s CPU     19.09s WALL (   21168 calls)

     Forces acting on atoms (cartesian axes, Ry/au):

     atom    1 type  1   force =    -0.00002884   -0.00020876   -0.00006764
     atom    2 type  1   force =     0.00002021   -0.00016215    0.00027781
     atom    3 type  3   force =     0.00000572   -0.00005622   -0.00022440
     atom    4 type  2   force =    -0.00006383    0.00021431    0.00017818
     atom    5 type  2   force =     0.00002067    0.00038512    0.00017645
     atom    6 type  2   force =    -0.00003354    0.00000403   -0.00026305
     atom    7 type  2   force =     0.00007961   -0.00017633   -0.00007735

     Total force =     0.000763     Total SCF correction =     0.000204
     SCF correction compared to forces is large: reduce conv_thr to get better values


     Computing stress (Cartesian axis) and pressure

     stres_hub    :    572.72s CPU     75.51s WALL (      14 calls)
     dprojdepsilo :    469.39s CPU     61.46s WALL (    4536 calls)
     dprojdeps1   :     51.23s CPU      6.73s WALL (    4536 calls)
     dprojdeps2   :    269.42s CPU     34.40s WALL (    4536 calls)
     dprojdeps3   :    148.59s CPU     20.32s WALL (    4536 calls)
          total   stress  (Ry/bohr**3)                   (kbar)     P=       -0.10
  -0.00000536  -0.00000019  -0.00000022           -0.79       -0.03       -0.03
  -0.00000019   0.00000157  -0.00000088           -0.03        0.23       -0.13
  -0.00000022  -0.00000088   0.00000178           -0.03       -0.13        0.26

     Energy error            =      2.6E-06 Ry
     Gradient error          =      3.9E-04 Ry/Bohr
     Cell gradient error     =      7.9E-01 kbar

     number of scf cycles    =  14
     number of bfgs steps    =  13

     enthalpy           old  =    -520.6207968595 Ry
     enthalpy           new  =    -520.6207994711 Ry

     CASE: enthalpy          _new < enthalpy          _old

     new trust radius        =       0.0017340406 bohr
     new conv_thr            =       0.0000000100 Ry

     new unit-cell volume =    487.63544 a.u.^3 (    72.26012 Ang^3 )
     density =      3.85016 g/cm^3

CELL_PARAMETERS (angstrom)
   2.961950446  -0.005043541   0.004392342
   1.491431367   6.187576944  -0.012625604
   2.961615985   3.179006602   3.937901607

ATOMIC_POSITIONS (angstrom)
Mg               3.4440292366        4.7992302300        1.4558020062
Mg               0.4771934357        1.1127864300        0.3396614809
Mn               4.9191274648        2.3343153424        2.5367357955
O                3.4468582364        6.9106904939        1.8224257076
O                4.9219399380        4.3087906628        2.8665790262
O                3.4407577880        2.7971839571        1.3631943931
O                4.9269323343        8.4147042807        3.8983689373



     Writing config-only to output data dir .\out\\qgan.save\ :
     XML data file
     NEW-OLD atomic charge density approx. for the potential
     New effective cutoffs (rho, wfc):  495.01   61.90

     Check: negative core charge=   -0.000002

     Atomic wfc used for Hubbard projectors are orthogonalized


     total cpu time spent up to now is      663.3 secs

     Self-consistent Calculation

     iteration #  1     ecut=    60.00 Ry     beta= 0.70
     Davidson diagonalization with overlap
     ethr =  1.00E-06,  avg # of iterations =  2.2

     =================== HUBBARD OCCUPATIONS ===================
     ------------------------ ATOM    3 ------------------------
     Tr[ns(  3)] =   5.23654
     eigenvalues:
       0.219  0.312  0.399  0.712  0.976
     eigenvectors (columns):
       0.535 -0.002 -0.209  0.000 -0.819
      -0.001  0.965  0.001  0.263 -0.003
      -0.806 -0.001 -0.417 -0.000 -0.421
       0.254  0.004 -0.885 -0.003  0.391
      -0.001  0.263  0.003 -0.965 -0.002
     occupation matrix ns (before diag.):
       0.734  0.002  0.276 -0.209  0.001
       0.002  0.339  0.001 -0.001 -0.102
       0.276  0.001  0.384 -0.058  0.001
      -0.209 -0.001 -0.058  0.476  0.000
       0.001 -0.102  0.001  0.000  0.685

     Number of occupied Hubbard levels =    5.2365

     Threshold (ethr) on eigenvalues was too large:
     Diagonalizing with lowered threshold

     Davidson diagonalization with overlap
     ethr =  1.43E-08,  avg # of iterations =  8.7

     total cpu time spent up to now is      670.4 secs

     total energy              =    -520.62080045 Ry
     estimated scf accuracy    <       0.00000202 Ry

     iteration #  2     ecut=    60.00 Ry     beta= 0.70
     Davidson diagonalization with overlap
     ethr =  4.71E-09,  avg # of iterations =  2.0

     total cpu time spent up to now is      672.8 secs

     total energy              =    -520.62080033 Ry
     estimated scf accuracy    <       0.00000155 Ry

     iteration #  3     ecut=    60.00 Ry     beta= 0.70
     Davidson diagonalization with overlap
     ethr =  3.59E-09,  avg # of iterations =  2.0

     total cpu time spent up to now is      675.1 secs

     total energy              =    -520.62080064 Ry
     estimated scf accuracy    <       0.00000113 Ry

     iteration #  4     ecut=    60.00 Ry     beta= 0.70
     Davidson diagonalization with overlap
     ethr =  2.62E-09,  avg # of iterations =  2.0

     total cpu time spent up to now is      677.4 secs

     total energy              =    -520.62080071 Ry
     estimated scf accuracy    <       0.00000170 Ry

     iteration #  5     ecut=    60.00 Ry     beta= 0.70
     Davidson diagonalization with overlap
     ethr =  2.62E-09,  avg # of iterations =  1.3

     total cpu time spent up to now is      679.5 secs

     total energy              =    -520.62080090 Ry
     estimated scf accuracy    <       0.00000006 Ry

     iteration #  6     ecut=    60.00 Ry     beta= 0.70
     Davidson diagonalization with overlap
     ethr =  1.50E-10,  avg # of iterations =  9.2

     total cpu time spent up to now is      683.0 secs

     total energy              =    -520.62080095 Ry
     estimated scf accuracy    <       0.00000003 Ry

     iteration #  7     ecut=    60.00 Ry     beta= 0.70
     Davidson diagonalization with overlap
     ethr =  8.03E-11,  avg # of iterations =  1.9

     total cpu time spent up to now is      685.3 secs

     End of self-consistent calculation

     =================== HUBBARD OCCUPATIONS ===================
     ------------------------ ATOM    3 ------------------------
     Tr[ns(  3)] =   5.23664
     eigenvalues:
       0.219  0.312  0.399  0.712  0.976
     eigenvectors (columns):
       0.535 -0.002 -0.209  0.000 -0.819
      -0.001  0.965  0.001  0.263 -0.003
      -0.806 -0.002 -0.417 -0.000 -0.420
       0.254  0.003 -0.885 -0.003  0.391
      -0.001  0.263  0.003 -0.965 -0.002
     occupation matrix ns (before diag.):
       0.734  0.002  0.276 -0.209  0.001
       0.002  0.339  0.001 -0.001 -0.102
       0.276  0.001  0.384 -0.058  0.000
      -0.209 -0.001 -0.058  0.476  0.000
       0.001 -0.102  0.000  0.000  0.685

     Number of occupied Hubbard levels =    5.2366

          k = 0.0000 0.0000 0.0000 (  3893 PWs)   bands (ev):

   -72.8892 -42.3166 -41.5374 -40.9259 -11.8813 -10.5528 -10.2835 -10.0598
     0.8178   1.4929   2.2394   2.7004   3.0753   3.9158   4.0948   4.3642
     4.6267   5.4144   5.6220   5.6723   6.0590   7.1392   7.9961  10.0764
    10.3372  11.7308

          k =-0.0003 0.0004 0.1877 (  3895 PWs)   bands (ev):

   -72.8891 -42.3167 -41.5374 -40.9259 -11.6847 -10.7077 -10.3543 -10.0978
     1.0149   1.7990   1.9770   3.0773   3.0818   3.8781   4.0204   4.4753
     4.5952   4.9621   5.5667   5.5961   5.7601   7.0971   8.0988   9.7858
    10.3789  12.8478

          k = 0.0006-0.0009-0.3753 (  3894 PWs)   bands (ev):

   -72.8890 -42.3168 -41.5374 -40.9259 -11.3543 -10.9819 -10.4260 -10.1511
     1.2727   1.8281   2.5163   3.0137   3.0734   3.4802   3.8723   4.5487
     4.5656   4.8291   5.4776   5.5154   5.6273   7.0540   8.1818   9.5435
    10.4215  14.4658

          k = 0.0003 0.1192-0.0965 (  3889 PWs)   bands (ev):

   -72.8892 -42.3167 -41.5374 -40.9258 -11.7764 -10.5801 -10.4192 -10.0431
     1.0399   1.5135   2.1950   2.7954   3.1103   3.9368   4.1122   4.3112
     4.6875   5.0210   5.4817   5.6245   6.0627   7.1635   7.9901  10.1418
    10.3770  12.5202

          k = 0.0001 0.1197 0.0911 (  3904 PWs)   bands (ev):

   -72.8892 -42.3167 -41.5374 -40.9259 -11.7293 -10.7896 -10.2466 -10.0528
     0.9521   1.7949   2.1059   2.8929   3.0429   3.8037   3.9162   4.4805
     4.6132   5.2151   5.5780   5.5809   5.8380   7.1339   8.0952   9.7919
    10.3382  12.4955

          k = 0.0009 0.1183-0.4718 (  3922 PWs)   bands (ev):

   -72.8891 -42.3168 -41.5374 -40.9259 -11.4047 -11.0620 -10.3254 -10.0939
     1.3102   1.6549   2.4293   3.0418   3.1500   3.5075   3.8991   4.3294
     4.5839   5.0772   5.4363   5.4928   5.6738   7.0902   8.1988   9.5541
    10.3807  13.8572

          k = 0.0006 0.1188-0.2842 (  3906 PWs)   bands (ev):

   -72.8891 -42.3167 -41.5374 -40.9259 -11.5322 -10.7872 -10.4839 -10.0833
     1.2373   1.7895   2.2194   2.9693   3.1101   3.8307   3.8959   4.4301
     4.5016   4.8971   5.4433   5.5437   5.7667   7.1241   8.1195   9.8646
    10.4186  14.0940

          k =-0.0007-0.2385 0.1930 (  3908 PWs)   bands (ev):

   -72.8891 -42.3167 -41.5374 -40.9258 -11.6426 -10.6788 -10.5083 -10.0296
     1.0176   1.8610   2.3996   2.8195   3.1479   3.6039   3.9615   4.2532
     4.5758   4.9928   5.4726   5.5760   6.0638   7.1879   7.9818  10.2114
    10.4163  13.8344

          k =-0.0010-0.2380 0.3807 (  3906 PWs)   bands (ev):

   -72.8891 -42.3167 -41.5374 -40.9259 -11.5907 -10.8593 -10.3701 -10.0407
     1.3393   1.7478   2.0054   2.9056   3.0737   3.8040   3.9381   4.4339
     4.7317   4.8776   5.4297   5.5262   5.8038   7.1593   8.1261   9.8758
    10.3781  13.4193

          k =-0.0001-0.2394-0.1823 (  3902 PWs)   bands (ev):

   -72.8892 -42.3168 -41.5374 -40.9259 -11.4473 -11.1315 -10.2302 -10.0498
     1.1573   1.8292   2.3147   3.0119   3.0267   3.7069   3.9278   4.0937
     4.5948   5.1762   5.4764   5.5516   5.7309   7.1248   8.1651   9.5444
    10.3398  13.7592

          k = 0.2498-0.0605-0.1390 (  3913 PWs)   bands (ev):

   -72.8863 -42.3137 -41.5318 -40.9649 -11.3237 -10.5801 -10.2137 -10.0421
     1.4052   1.6752   2.1273   2.4322   2.7798   3.0136   3.8354   4.0080
     4.2796   5.0100   5.2986   5.5095   6.1179   6.9799   8.0194   9.6902
    10.1031  13.9414

          k = 0.2495-0.0600 0.0486 (  3893 PWs)   bands (ev):

   -72.8863 -42.3136 -41.5318 -40.9649 -11.4227 -10.4531 -10.2592 -10.0086
     1.4220   1.8128   2.0450   2.4456   2.8260   2.8671   3.7103   3.9871
     4.2875   5.0274   5.3848   5.5591   6.0435   7.0699   7.9470   9.7576
    10.0785  13.5883

          k = 0.2503-0.0614-0.5143 (  3920 PWs)   bands (ev):

   -72.8863 -42.3137 -41.5318 -40.9649 -11.2279 -10.5493 -10.3458 -10.0615
     1.3240   1.6832   2.2011   2.5536   2.6743   3.0082   3.9975   4.1217
     4.3873   4.9234   5.0545   5.4749   6.1606   6.9685   8.0154   9.6460
    10.0341  14.7114

          k = 0.2501-0.0609-0.3267 (  3917 PWs)   bands (ev):

   -72.8863 -42.3137 -41.5318 -40.9649 -11.0424 -10.7617 -10.2968 -10.1006
     1.3361   1.6522   2.0958   2.4465   2.7322   3.3571   3.9183   4.2004
     4.3836   4.8547   4.9996   5.4606   6.1831   6.8920   8.0831   9.8105
     9.8576  15.1039

          k = 0.2501 0.0588-0.2356 (  3918 PWs)   bands (ev):

   -72.8863 -42.3137 -41.5318 -40.9649 -11.2278 -10.5493 -10.3458 -10.0616
     1.3244   1.6832   2.2012   2.5529   2.6745   3.0082   3.9972   4.1217
     4.3872   4.9237   5.0545   5.4748   6.1606   6.9691   8.0149   9.6470
    10.0335  14.7111

          k = 0.2499 0.0592-0.0479 (  3898 PWs)   bands (ev):

   -72.8863 -42.3136 -41.5318 -40.9649 -11.4227 -10.4531 -10.2592 -10.0086
     1.4220   1.8128   2.0448   2.4457   2.8255   2.8677   3.7103   3.9872
     4.2873   5.0274   5.3850   5.5591   6.0435   7.0699   7.9469   9.7577
    10.0785  13.5882

          k = 0.2507 0.0579-0.6109 (  3911 PWs)   bands (ev):

   -72.8863 -42.3137 -41.5318 -40.9649 -11.3238 -10.5801 -10.2138 -10.0421
     1.4050   1.6751   2.1273   2.4320   2.7804   3.0136   3.8355   4.0084
     4.2795   5.0098   5.2982   5.5097   6.1180   6.9796   8.0196   9.6894
    10.1036  13.9415

          k = 0.2504 0.0583-0.4232 (  3915 PWs)   bands (ev):

   -72.8863 -42.3137 -41.5318 -40.9649 -11.0424 -10.7617 -10.2968 -10.1006
     1.3361   1.6521   2.0959   2.4466   2.7320   3.3571   3.9185   4.2004
     4.3834   4.8548   4.9993   5.4607   6.1832   6.8921   8.0830   9.8110
     9.8570  15.1039

          k = 0.2491-0.2990 0.0540 (  3925 PWs)   bands (ev):

   -72.8863 -42.3137 -41.5319 -40.9649 -11.1578 -10.6483 -10.3429 -10.0465
     1.4705   1.8448   2.1102   2.4654   2.6734   3.1209   3.7058   4.0364
     4.3745   4.8959   5.1103   5.5290   6.1534   6.9797   8.0302   9.6626
    10.1178  14.7121

          k = 0.2488-0.2985 0.2417 (  3915 PWs)   bands (ev):

   -72.8863 -42.3136 -41.5318 -40.9649 -11.2894 -10.4738 -10.4034 -10.0117
     1.3838   1.9723   2.2628   2.5107   2.6658   2.8890   3.5494   3.9479
     4.4766   4.9096   5.1582   5.5870   6.1131   7.0843   7.9348   9.7062
    10.0834  14.4983

          k = 0.2497-0.2999-0.3213 (  3914 PWs)   bands (ev):

   -72.8863 -42.3137 -41.5318 -40.9649 -11.2720 -10.6431 -10.2252 -10.0306
     1.6122   1.7830   1.9364   2.5649   2.7881   3.0479   3.5672   3.8875
     4.1483   5.0689   5.3487   5.5690   6.1080   6.9840   8.0311   9.7186
    10.1875  13.8675

          k = 0.2494-0.2994-0.1336 (  3920 PWs)   bands (ev):

   -72.8863 -42.3137 -41.5318 -40.9649 -11.0638 -10.8661 -10.1959 -10.0609
     1.5726   1.7186   1.9746   2.5664   2.7527   3.1035   3.5075   4.1676
     4.2890   4.8408   5.3152   5.5384   6.1548   6.8928   8.0969   9.9091
     9.9424  14.6199

          k = 0.2494-0.1797-0.0425 (  3913 PWs)   bands (ev):

   -72.8863 -42.3137 -41.5318 -40.9649 -11.2720 -10.6431 -10.2251 -10.0307
     1.6126   1.7833   1.9365   2.5651   2.7877   3.0471   3.5674   3.8870
     4.1488   5.0689   5.3487   5.5691   6.1080   6.9843   8.0307   9.7193
    10.1870  13.8674

          k = 0.2492-0.1793 0.1451 (  3921 PWs)   bands (ev):

   -72.8863 -42.3136 -41.5318 -40.9649 -11.2894 -10.4738 -10.4034 -10.0117
     1.3838   1.9721   2.2628   2.5113   2.6653   2.8890   3.5492   3.9479
     4.4768   4.9094   5.1583   5.5870   6.1131   7.0841   7.9349   9.7061
    10.0833  14.4983

          k = 0.2500-0.1806-0.4178 (  3925 PWs)   bands (ev):

   -72.8863 -42.3137 -41.5319 -40.9649 -11.1578 -10.6483 -10.3429 -10.0465
     1.4699   1.8448   2.1102   2.4656   2.6737   3.1213   3.7057   4.0368
     4.3742   4.8960   5.1104   5.5289   6.1533   6.9791   8.0307   9.6618
    10.1185  14.7124

          k = 0.2497-0.1802-0.2302 (  3914 PWs)   bands (ev):

   -72.8863 -42.3137 -41.5318 -40.9649 -11.0638 -10.8661 -10.1959 -10.0609
     1.5726   1.7185   1.9746   2.5662   2.7530   3.1035   3.5074   4.1679
     4.2888   4.8408   5.3155   5.5383   6.1547   6.8927   8.0969   9.9087
     9.9430  14.6199

          k =-0.4996 0.1210 0.2781 (  3922 PWs)   bands (ev):

   -72.8839 -42.3106 -41.5263 -41.0036 -10.6352 -10.4368 -10.2824 -10.1025
     0.7108   1.2108   1.8409   2.2714   2.5848   3.4978   3.9003   4.2678
     4.5360   4.7625   4.8060   5.3302   5.9775   6.7962   7.9277   9.9973
    10.1058  15.2997

          k =-0.4999 0.1214 0.4657 (  3918 PWs)   bands (ev):

   -72.8839 -42.3106 -41.5263 -41.0036 -10.6811 -10.4540 -10.2673 -10.0608
     0.9143   1.2301   1.9708   2.3748   2.5960   3.4242   3.6777   4.2289
     4.4025   4.5172   4.9137   5.1633   5.9742   6.9645   7.9119   9.8131
    10.0640  15.8428

          k =-0.4990 0.1201-0.0972 (  3936 PWs)   bands (ev):

   -72.8839 -42.3106 -41.5263 -41.0037 -10.7192 -10.4744 -10.2503 -10.0253
     1.0782   1.3426   2.2140   2.4456   2.6494   3.1028   3.3976   4.1554
     4.3495   4.4909   4.8969   5.0347   5.9650   7.0934   7.8996   9.5978
    10.0792  16.0914

          k =-0.4992 0.2402 0.1815 (  3934 PWs)   bands (ev):

   -72.8839 -42.3106 -41.5263 -41.0036 -10.6351 -10.4375 -10.2815 -10.1030
     0.7756   1.1130   1.8485   2.2710   2.5740   3.6504   3.8615   4.2021
     4.5281   4.7506   4.8170   5.3257   5.9762   6.7995   7.9224  10.0120
    10.0811  15.6095

          k =-0.4995 0.2407 0.3692 (  3923 PWs)   bands (ev):

   -72.8839 -42.3106 -41.5263 -41.0036 -10.6803 -10.4565 -10.2649 -10.0615
     0.8987   1.2671   1.9637   2.2335   2.7980   3.3418   3.6755   4.2142
     4.4070   4.5180   4.9244   5.1718   5.9725   6.9692   7.9113   9.8021
    10.0776  15.6317

          k =-0.4987 0.2393-0.1938 (  3915 PWs)   bands (ev):

   -72.8839 -42.3106 -41.5262 -41.0036 -10.7211 -10.4683 -10.2561 -10.0236
     1.0921   1.3114   2.1810   2.5344   2.6894   3.0010   3.4680   4.1321
     4.2830   4.4842   4.8776   5.0962   5.9695   7.0978   7.8998   9.6083
    10.0710  16.0485

          k =-0.4990 0.2398-0.0061 (  3927 PWs)   bands (ev):

   -72.8839 -42.3106 -41.5263 -41.0036 -10.6803 -10.4566 -10.2647 -10.0615
     0.8990   1.2667   1.9637   2.2334   2.7984   3.3417   3.6756   4.2137
     4.4073   4.5182   4.9241   5.1718   5.9726   6.9693   7.9114   9.8015
    10.0778  15.6313

          k =-0.5003-0.1175 0.4711 (  3928 PWs)   bands (ev):

   -72.8839 -42.3106 -41.5263 -41.0036 -10.6352 -10.4368 -10.2823 -10.1027
     0.7112   1.2102   1.8407   2.2718   2.5848   3.4982   3.9001   4.2674
     4.5362   4.7624   4.8059   5.3302   5.9776   6.7964   7.9276   9.9964
    10.1064  15.2992

          k =-0.5006-0.1171 0.6588 (  3915 PWs)   bands (ev):

   -72.8839 -42.3106 -41.5262 -41.0036 -10.6811 -10.4539 -10.2673 -10.0608
     0.9145   1.2300   1.9708   2.3748   2.5958   3.4242   3.6780   4.2284
     4.4026   4.5174   4.9137   5.1633   5.9742   6.9648   7.9117   9.8130
    10.0641  15.8423

          k =-0.4997-0.1184 0.0958 (  3928 PWs)   bands (ev):

   -72.8839 -42.3106 -41.5263 -41.0036 -10.7192 -10.4742 -10.2505 -10.0253
     1.0782   1.3427   2.2140   2.4458   2.6492   3.1030   3.3974   4.1555
     4.3490   4.4912   4.8968   5.0351   5.9651   7.0936   7.8995   9.5982
    10.0791  16.0920

     the Fermi energy is     7.0453 ev

!    total energy              =    -520.62080096 Ry
     total all-electron energy =     -3720.874059 Ry
     estimated scf accuracy    <          3.5E-09 Ry
     smearing contrib. (-TS)   =      -0.00491532 Ry
     internal energy E=F+TS    =    -520.61588564 Ry

     The total energy is F=E-TS. E is the sum of the following terms:
     one-electron contribution =    -240.57403848 Ry
     hartree contribution      =     145.35914356 Ry
     xc contribution           =     -61.24974486 Ry
     ewald contribution        =    -185.65514102 Ry
     Hubbard energy            =       0.24478121 Ry
     one-center paw contrib.   =    -178.74088605 Ry

     convergence has been achieved in   7 iterations
     force_hub    :    215.73s CPU     32.24s WALL (      15 calls)
     dndtau       :    187.98s CPU     28.37s WALL (   11340 calls)
     dprojdtau    :     29.23s CPU      4.29s WALL (   11340 calls)
     calc_doverla :    100.58s CPU     15.29s WALL (   11340 calls)
     matel_dSdtau :    137.12s CPU     20.59s WALL (   22680 calls)

     Forces acting on atoms (cartesian axes, Ry/au):

     atom    1 type  1   force =    -0.00005591   -0.00012963   -0.00009050
     atom    2 type  1   force =     0.00001639   -0.00021880    0.00015021
     atom    3 type  3   force =     0.00000183   -0.00020048    0.00003288
     atom    4 type  2   force =    -0.00001934    0.00011755    0.00011940
     atom    5 type  2   force =    -0.00000326    0.00024700   -0.00009102
     atom    6 type  2   force =    -0.00001946    0.00022757   -0.00003847
     atom    7 type  2   force =     0.00007975   -0.00004321   -0.00008250

     Total force =     0.000554     Total SCF correction =     0.000101
     SCF correction compared to forces is large: reduce conv_thr to get better values


     Computing stress (Cartesian axis) and pressure

     stres_hub    :    613.33s CPU     81.00s WALL (      15 calls)
     dprojdepsilo :    503.31s CPU     65.95s WALL (    4860 calls)
     dprojdeps1   :     54.09s CPU      7.20s WALL (    4860 calls)
     dprojdeps2   :    290.67s CPU     36.94s WALL (    4860 calls)
     dprojdeps3   :    158.41s CPU     21.80s WALL (    4860 calls)
          total   stress  (Ry/bohr**3)                   (kbar)     P=        0.04
  -0.00000184   0.00000011  -0.00000025           -0.27        0.02       -0.04
   0.00000011   0.00000120  -0.00000025            0.02        0.18       -0.04
  -0.00000025  -0.00000025   0.00000155           -0.04       -0.04        0.23

     Energy error            =      1.5E-06 Ry
     Gradient error          =      2.5E-04 Ry/Bohr
     Cell gradient error     =      2.7E-01 kbar

     bfgs converged in  15 scf cycles and  14 bfgs steps
     (criteria: energy <  1.0E-04 Ry, force <  1.0E-03 Ry/Bohr, cell <  5.0E-01 kbar)

     End of BFGS Geometry Optimization

     Final enthalpy           =    -520.6208009579 Ry

     File .\out\\qgan.bfgs deleted, as requested
Begin final coordinates
     new unit-cell volume =    487.63544 a.u.^3 (    72.26012 Ang^3 )
     density =      3.85016 g/cm^3

CELL_PARAMETERS (angstrom)
   2.961950446  -0.005043541   0.004392342
   1.491431367   6.187576944  -0.012625604
   2.961615985   3.179006602   3.937901607

ATOMIC_POSITIONS (angstrom)
Mg               3.4440292366        4.7992302300        1.4558020062
Mg               0.4771934357        1.1127864300        0.3396614809
Mn               4.9191274648        2.3343153424        2.5367357955
O                3.4468582364        6.9106904939        1.8224257076
O                4.9219399380        4.3087906628        2.8665790262
O                3.4407577880        2.7971839571        1.3631943931
O                4.9269323343        8.4147042807        3.8983689373
End final coordinates



     Writing config-only to output data dir .\out\\qgan.save\ :
     XML data file

     Final scf calculation at the relaxed structure.
     The G-vectors are recalculated for the final unit cell
     Results may differ from those at the preceding step.
 
     G-vector sticks info
     --------------------
     sticks:   dense  smooth     PW     G-vecs:    dense   smooth      PW
     Sum        2499    1245    391                86587    30627    5417
 
     Using Slab Decomposition
 


     bravais-lattice index     =            0
     lattice parameter (alat)  =       5.5903  a.u.
     unit-cell volume          =     487.6354 (a.u.)^3
     number of atoms/cell      =            7
     number of atomic types    =            3
     number of electrons       =        43.00
     number of Kohn-Sham states=           26
     kinetic-energy cutoff     =      60.0000  Ry
     charge density cutoff     =     480.0000  Ry
     scf convergence threshold =      1.0E-08
     mixing beta               =       0.7000
     number of iterations used =            8  plain     mixing
     press convergence thresh. =      5.0E-01
     Exchange-correlation= SLA  PW   PBX  PBC
                           (   1   4   3   4   0   0   0)
     Hubbard projectors: ortho-atomic
     Hubbard parameters of DFT+U (Dudarev formulation) in eV:
     U(Mn-3d) =  3.9000

     Internal variables: lda_plus_u = T, lda_plus_u_kind = 0

     Internal variables: orbital_resolved = F, hub_pot_fix = F, apply_U =  F

     celldm(1)=   5.590286  celldm(2)=   0.000000  celldm(3)=   0.000000
     celldm(4)=   0.000000  celldm(5)=   0.000000  celldm(6)=   0.000000

     crystal axes: (cart. coord. in units of alat)
               a(1) = (   1.001250  -0.001705   0.001485 )  
               a(2) = (   0.504160   2.091633  -0.004268 )  
               a(3) = (   1.001137   1.074623   1.331158 )  

     reciprocal axes: (cart. coord. in units 2 pi/alat)
               b(1) = (  0.999164 -0.241970 -0.556113 )  
               b(2) = (  0.001385  0.476974 -0.386095 )  
               b(3) = ( -0.001110  0.001799  0.750608 )  


     PseudoPot. # 1 for Mg read from file:
     ..\..\pseudo\\Mg.pbe-n-kjpaw_psl.0.3.0.UPF
     MD5 check sum: d3e4124f57d03672d8f0e29aa18e2cc4
     Pseudo is Projector augmented-wave + core cor, Zval =  2.0
     Generated using &quot;atomic&quot; code by A. Dal Corso  v.6.3
     Shape of augmentation charge: PSQ
     Using radial grid of 1129 points,  4 beta functions with: 
                l(1) =   0
                l(2) =   0
                l(3) =   1
                l(4) =   1
     Q(r) pseudized with 0 coefficients 


     PseudoPot. # 2 for O  read from file:
     ..\..\pseudo\\O.pbe-n-kjpaw_psl.1.0.0.UPF
     MD5 check sum: e99d9cef9b487d1ca56f5b95ecd0fd7a
     Pseudo is Projector augmented-wave + core cor, Zval =  6.0
     Generated using &quot;atomic&quot; code by A. Dal Corso  v.6.3
     Shape of augmentation charge: PSQ
     Using radial grid of 1095 points,  4 beta functions with: 
                l(1) =   0
                l(2) =   0
                l(3) =   1
                l(4) =   1
     Q(r) pseudized with 0 coefficients 


     PseudoPot. # 3 for Mn read from file:
     ..\..\pseudo\\Mn.pbe-spn-kjpaw_psl.0.3.1.UPF
     MD5 check sum: ba19e6d7ccbc12830efad05ba8577d9c
     Pseudo is Projector augmented-wave + core cor, Zval = 15.0
     Generated using &quot;atomic&quot; code by A. Dal Corso  v.6.2.2
     Shape of augmentation charge: PSQ
     Using radial grid of 1187 points,  6 beta functions with: 
                l(1) =   0
                l(2) =   0
                l(3) =   1
                l(4) =   1
                l(5) =   2
                l(6) =   2
     Q(r) pseudized with 0 coefficients 


     atomic species   valence    mass     pseudopotential
     Mg                2.00    24.30500     Mg( 1.00)
     O                 6.00    15.99900     O ( 1.00)
     Mn               15.00    54.93800     Mn( 1.00)

     No symmetry found



   Cartesian axes

     site n.     atom                  positions (alat units)
         1        Mg     tau(   1) = (   1.1642109   1.6223196   0.4921156  )
         2        Mg     tau(   2) = (   0.1613093   0.3761635   0.1148183  )
         3        Mn     tau(   3) = (   1.6628494   0.7890860   0.8575117  )
         4        O      tau(   4) = (   1.1651672   2.3360723   0.6160482  )
         5        O      tau(   5) = (   1.6638001   1.4565327   0.9690111  )
         6        O      tau(   6) = (   1.1631050   0.9455530   0.4608108  )
         7        O      tau(   7) = (   1.6654877   2.8444853   1.3177947  )

     number of k points=    36  Marzari-Vanderbilt smearing, width (Ry)=  0.0200
                       cart. coord. in units 2pi/alat
        k(    1) = (   0.0000000   0.0000000   0.0000000), wk =   0.0312500
        k(    2) = (  -0.0002775   0.0004498   0.1876520), wk =   0.0625000
        k(    3) = (   0.0005550  -0.0008996  -0.3753039), wk =   0.0312500
        k(    4) = (   0.0003462   0.1192435  -0.0965237), wk =   0.0625000
        k(    5) = (   0.0000687   0.1196932   0.0911282), wk =   0.0625000
        k(    6) = (   0.0009012   0.1183439  -0.4718277), wk =   0.0625000
        k(    7) = (   0.0006237   0.1187937  -0.2841757), wk =   0.0625000
        k(    8) = (  -0.0006924  -0.2384869   0.1930475), wk =   0.0312500
        k(    9) = (  -0.0009699  -0.2380371   0.3806994), wk =   0.0625000
        k(   10) = (  -0.0001373  -0.2393865  -0.1822565), wk =   0.0312500
        k(   11) = (   0.2497910  -0.0604924  -0.1390282), wk =   0.0625000
        k(   12) = (   0.2495135  -0.0600426   0.0486238), wk =   0.0625000
        k(   13) = (   0.2503460  -0.0613920  -0.5143321), wk =   0.0625000
        k(   14) = (   0.2500685  -0.0609422  -0.3266801), wk =   0.0625000
        k(   15) = (   0.2501372   0.0587510  -0.2355519), wk =   0.0625000
        k(   16) = (   0.2498597   0.0592008  -0.0478999), wk =   0.0625000
        k(   17) = (   0.2506922   0.0578515  -0.6108558), wk =   0.0625000
        k(   18) = (   0.2504147   0.0583013  -0.4232039), wk =   0.0625000
        k(   19) = (   0.2490986  -0.2989793   0.0540193), wk =   0.0625000
        k(   20) = (   0.2488211  -0.2985295   0.2416713), wk =   0.0625000
        k(   21) = (   0.2496537  -0.2998789  -0.3212846), wk =   0.0625000
        k(   22) = (   0.2493761  -0.2994291  -0.1336327), wk =   0.0625000
        k(   23) = (   0.2494448  -0.1797359  -0.0425044), wk =   0.0625000
        k(   24) = (   0.2491673  -0.1792861   0.1451475), wk =   0.0625000
        k(   25) = (   0.2499998  -0.1806354  -0.4178084), wk =   0.0625000
        k(   26) = (   0.2497223  -0.1801856  -0.2301564), wk =   0.0625000
        k(   27) = (  -0.4995820   0.1209848   0.2780563), wk =   0.0312500
        k(   28) = (  -0.4998595   0.1214346   0.4657083), wk =   0.0625000
        k(   29) = (  -0.4990270   0.1200852  -0.0972476), wk =   0.0312500
        k(   30) = (  -0.4992358   0.2402283   0.1815326), wk =   0.0625000
        k(   31) = (  -0.4995133   0.2406781   0.3691846), wk =   0.0625000
        k(   32) = (  -0.4986808   0.2393287  -0.1937713), wk =   0.0625000
        k(   33) = (  -0.4989583   0.2397785  -0.0061194), wk =   0.0625000
        k(   34) = (  -0.5002744  -0.1175021   0.4711038), wk =   0.0312500
        k(   35) = (  -0.5005519  -0.1170523   0.6587558), wk =   0.0625000
        k(   36) = (  -0.4997193  -0.1184017   0.0957999), wk =   0.0312500

     Dense  grid:    86587 G-vectors     FFT dimensions: (  40,  90,  80)

     Smooth grid:    30627 G-vectors     FFT dimensions: (  27,  60,  60)

     Estimated max dynamical RAM per process >     409.61 MB

     Check: negative core charge=   -0.000002

     Initial potential from superposition of free atoms

     starting charge      42.9976, renormalised to      43.0000

     STARTING HUBBARD OCCUPATIONS:

     =================== HUBBARD OCCUPATIONS ===================
     ------------------------ ATOM    3 ------------------------
     Tr[ns(  3)] =   5.00000
     eigenvalues:
       0.500  0.500  0.500  0.500  0.500
     eigenvectors (columns):
       1.000  0.000  0.000  0.000  0.000
       0.000  1.000  0.000  0.000  0.000
       0.000  0.000  1.000  0.000  0.000
       0.000  0.000  0.000  1.000  0.000
       0.000  0.000  0.000  0.000  1.000
     occupation matrix ns (before diag.):
       0.500  0.000  0.000  0.000  0.000
       0.000  0.500  0.000  0.000  0.000
       0.000  0.000  0.500  0.000  0.000
       0.000  0.000  0.000  0.500  0.000
       0.000  0.000  0.000  0.000  0.500

     Number of occupied Hubbard levels =    5.0000

     Atomic wfc used for Hubbard projectors are orthogonalized

     Starting wfcs are   34 randomized atomic wfcs
     Checking if some PAW data can be deallocated... 

     total cpu time spent up to now is      697.1 secs

     Self-consistent Calculation

     iteration #  1     ecut=    60.00 Ry     beta= 0.70
     Davidson diagonalization with overlap
     c_bands:  1 eigenvalues not converged
     c_bands:  1 eigenvalues not converged
     c_bands:  1 eigenvalues not converged
     c_bands:  1 eigenvalues not converged
     c_bands:  1 eigenvalues not converged
     c_bands:  5 eigenvalues not converged
     c_bands:  1 eigenvalues not converged
     c_bands:  1 eigenvalues not converged
     c_bands:  1 eigenvalues not converged
     c_bands:  4 eigenvalues not converged
     c_bands:  1 eigenvalues not converged
     ethr =  1.00E-06,  avg # of iterations = 36.1

     =================== HUBBARD OCCUPATIONS ===================
     ------------------------ ATOM    3 ------------------------
     Tr[ns(  3)] =   4.09818
     eigenvalues:
       0.088  0.177  0.225  0.576  0.983
     eigenvectors (columns):
       0.534 -0.002 -0.262  0.001 -0.804
      -0.001  0.966  0.000  0.260 -0.003
      -0.805 -0.002 -0.448  0.000 -0.388
       0.258  0.003 -0.855 -0.004  0.450
      -0.001  0.260  0.003 -0.966 -0.004
     occupation matrix ns (before diag.):
       0.676  0.002  0.296 -0.293  0.002
       0.002  0.204  0.001 -0.001 -0.100
       0.296  0.001  0.251 -0.104  0.001
      -0.293 -0.001 -0.104  0.369  0.000
       0.002 -0.100  0.001  0.000  0.549

     Number of occupied Hubbard levels =    4.0982

     total cpu time spent up to now is      711.1 secs

     total energy              =    -519.25325474 Ry
     estimated scf accuracy    <       2.43577662 Ry

     iteration #  2     ecut=    60.00 Ry     beta= 0.70
     Davidson diagonalization with overlap
     ethr =  5.66E-03,  avg # of iterations =  4.0

     total cpu time spent up to now is      714.0 secs

     total energy              =    -517.66915963 Ry
     estimated scf accuracy    <      30.58281537 Ry

     iteration #  3     ecut=    60.00 Ry     beta= 0.70
     Davidson diagonalization with overlap
     ethr =  5.66E-03,  avg # of iterations =  3.2

     total cpu time spent up to now is      716.6 secs

     total energy              =    -520.50458524 Ry
     estimated scf accuracy    <       0.60102270 Ry

     iteration #  4     ecut=    60.00 Ry     beta= 0.70
     Davidson diagonalization with overlap
     ethr =  1.40E-03,  avg # of iterations =  2.1

     total cpu time spent up to now is      719.5 secs

     total energy              =    -520.57488572 Ry
     estimated scf accuracy    <       0.10458088 Ry

     iteration #  5     ecut=    60.00 Ry     beta= 0.70
     Davidson diagonalization with overlap
     ethr =  2.43E-04,  avg # of iterations =  4.1

     total cpu time spent up to now is      723.8 secs

     total energy              =    -520.60921950 Ry
     estimated scf accuracy    <       0.03519980 Ry

     iteration #  6     ecut=    60.00 Ry     beta= 0.70
     Davidson diagonalization with overlap
     ethr =  8.19E-05,  avg # of iterations =  2.1

     total cpu time spent up to now is      726.8 secs

     total energy              =    -520.61736557 Ry
     estimated scf accuracy    <       0.01812849 Ry

     iteration #  7     ecut=    60.00 Ry     beta= 0.70
     Davidson diagonalization with overlap
     ethr =  4.22E-05,  avg # of iterations =  2.0

     total cpu time spent up to now is      732.1 secs

     total energy              =    -520.61803269 Ry
     estimated scf accuracy    <       0.00590837 Ry

     iteration #  8     ecut=    60.00 Ry     beta= 0.70
     Davidson diagonalization with overlap
     ethr =  1.37E-05,  avg # of iterations =  2.2

     total cpu time spent up to now is      735.7 secs

     total energy              =    -520.61956295 Ry
     estimated scf accuracy    <       0.00178368 Ry

     iteration #  9     ecut=    60.00 Ry     beta= 0.70
     Davidson diagonalization with overlap
     ethr =  4.15E-06,  avg # of iterations =  7.1

     total cpu time spent up to now is      739.7 secs

     total energy              =    -520.62017538 Ry
     estimated scf accuracy    <       0.00046051 Ry

     iteration # 10     ecut=    60.00 Ry     beta= 0.70
     Davidson diagonalization with overlap
     ethr =  1.07E-06,  avg # of iterations =  3.9

     total cpu time spent up to now is      742.4 secs

     total energy              =    -520.62022983 Ry
     estimated scf accuracy    <       0.00013223 Ry

     iteration # 11     ecut=    60.00 Ry     beta= 0.70
     Davidson diagonalization with overlap
     ethr =  3.08E-07,  avg # of iterations =  8.2

     total cpu time spent up to now is      745.7 secs

     total energy              =    -520.62032911 Ry
     estimated scf accuracy    <       0.00002492 Ry

     iteration # 12     ecut=    60.00 Ry     beta= 0.70
     Davidson diagonalization with overlap
     c_bands:  4 eigenvalues not converged
     ethr =  5.80E-08,  avg # of iterations = 10.6

     total cpu time spent up to now is      749.6 secs

     total energy              =    -520.62035057 Ry
     estimated scf accuracy    <       0.00002318 Ry

     iteration # 13     ecut=    60.00 Ry     beta= 0.70
     Davidson diagonalization with overlap
     ethr =  5.39E-08,  avg # of iterations =  2.4

     total cpu time spent up to now is      752.1 secs

     total energy              =    -520.62035505 Ry
     estimated scf accuracy    <       0.00000048 Ry

     iteration # 14     ecut=    60.00 Ry     beta= 0.70
     Davidson diagonalization with overlap
     c_bands:  2 eigenvalues not converged
     c_bands:  2 eigenvalues not converged
     c_bands:  5 eigenvalues not converged
     c_bands:  4 eigenvalues not converged
     c_bands:  2 eigenvalues not converged
     c_bands:  3 eigenvalues not converged
     c_bands:  4 eigenvalues not converged
     c_bands:  4 eigenvalues not converged
     c_bands:  2 eigenvalues not converged
     c_bands:  3 eigenvalues not converged
     c_bands:  1 eigenvalues not converged
     c_bands:  4 eigenvalues not converged
     c_bands:  3 eigenvalues not converged
     c_bands:  2 eigenvalues not converged
     ethr =  1.10E-09,  avg # of iterations = 25.5

     total cpu time spent up to now is      761.5 secs

     total energy              =    -520.62036186 Ry
     estimated scf accuracy    <       0.00000217 Ry

     iteration # 15     ecut=    60.00 Ry     beta= 0.70
     Davidson diagonalization with overlap
     ethr =  1.10E-09,  avg # of iterations =  3.5

     total cpu time spent up to now is      763.9 secs

     total energy              =    -520.62036168 Ry
     estimated scf accuracy    <       0.00000152 Ry

     iteration # 16     ecut=    60.00 Ry     beta= 0.70
     Davidson diagonalization with overlap
     ethr =  1.10E-09,  avg # of iterations =  2.3

     total cpu time spent up to now is      766.6 secs

     total energy              =    -520.62036151 Ry
     estimated scf accuracy    <       0.00000069 Ry

     iteration # 17     ecut=    60.00 Ry     beta= 0.70
     Davidson diagonalization with overlap
     ethr =  1.10E-09,  avg # of iterations =  4.9

     total cpu time spent up to now is      769.8 secs

     total energy              =    -520.62036184 Ry
     estimated scf accuracy    <       0.00000010 Ry

     iteration # 18     ecut=    60.00 Ry     beta= 0.70
     Davidson diagonalization with overlap
     ethr =  2.31E-10,  avg # of iterations =  8.9

     total cpu time spent up to now is      774.0 secs

     total energy              =    -520.62036184 Ry
     estimated scf accuracy    <       0.00000052 Ry

     iteration # 19     ecut=    60.00 Ry     beta= 0.70
     Davidson diagonalization with overlap
     ethr =  2.31E-10,  avg # of iterations =  6.6

     total cpu time spent up to now is      778.7 secs

     total energy              =    -520.62036165 Ry
     estimated scf accuracy    <       0.00000007 Ry

     iteration # 20     ecut=    60.00 Ry     beta= 0.70
     Davidson diagonalization with overlap
     ethr =  1.60E-10,  avg # of iterations =  3.3

     total cpu time spent up to now is      781.5 secs

     total energy              =    -520.62036216 Ry
     estimated scf accuracy    <       0.00000013 Ry

     iteration # 21     ecut=    60.00 Ry     beta= 0.70
     Davidson diagonalization with overlap
     ethr =  1.60E-10,  avg # of iterations =  2.0

     total cpu time spent up to now is      783.8 secs

     total energy              =    -520.62036215 Ry
     estimated scf accuracy    <       0.00000014 Ry

     iteration # 22     ecut=    60.00 Ry     beta= 0.70
     Davidson diagonalization with overlap
     ethr =  1.60E-10,  avg # of iterations =  2.9

     total cpu time spent up to now is      786.3 secs

     total energy              =    -520.62036216 Ry
     estimated scf accuracy    <       0.00000004 Ry

     iteration # 23     ecut=    60.00 Ry     beta= 0.70
     Davidson diagonalization with overlap
     ethr =  9.18E-11,  avg # of iterations =  4.9

     total cpu time spent up to now is      789.2 secs

     End of self-consistent calculation

     =================== HUBBARD OCCUPATIONS ===================
     ------------------------ ATOM    3 ------------------------
     Tr[ns(  3)] =   5.23653
     eigenvalues:
       0.219  0.312  0.399  0.712  0.976
     eigenvectors (columns):
      -0.535 -0.002  0.209 -0.000 -0.819
       0.001  0.965 -0.001  0.263 -0.004
       0.806 -0.002  0.417  0.000 -0.420
      -0.254  0.003  0.885 -0.003  0.391
       0.001  0.263 -0.003 -0.965 -0.002
     occupation matrix ns (before diag.):
       0.734  0.002  0.276 -0.209  0.001
       0.002  0.339  0.001 -0.001 -0.102
       0.276  0.001  0.384 -0.058  0.000
      -0.209 -0.001 -0.058  0.476  0.000
       0.001 -0.102  0.000  0.000  0.685

     Number of occupied Hubbard levels =    5.2365

          k = 0.0000 0.0000 0.0000 (  3801 PWs)   bands (ev):

   -72.8895 -42.3170 -41.5379 -40.9260 -11.8815 -10.5530 -10.2838 -10.0601
     0.8179   1.4928   2.2393   2.7003   3.0753   3.9157   4.0947   4.3641
     4.6267   5.4142   5.6221   5.6722   6.0590   7.1392   7.9963  10.0764
    10.3373  11.7307

          k =-0.0003 0.0004 0.1877 (  3830 PWs)   bands (ev):

   -72.8895 -42.3170 -41.5380 -40.9260 -11.6849 -10.7080 -10.3545 -10.0981
     1.0149   1.7989   1.9769   3.0772   3.0817   3.8778   4.0202   4.4752
     4.5952   4.9620   5.5665   5.5959   5.7601   7.0970   8.0989   9.7857
    10.3789  12.8477

          k = 0.0006-0.0009-0.3753 (  3818 PWs)   bands (ev):

   -72.8894 -42.3171 -41.5380 -40.9260 -11.3546 -10.9820 -10.4263 -10.1514
     1.2726   1.8279   2.5162   3.0136   3.0734   3.4802   3.8719   4.5486
     4.5655   4.8290   5.4774   5.5152   5.6272   7.0539   8.1819   9.5434
    10.4216  14.4658

          k = 0.0003 0.1192-0.0965 (  3822 PWs)   bands (ev):

   -72.8895 -42.3170 -41.5380 -40.9260 -11.7766 -10.5804 -10.4195 -10.0434
     1.0398   1.5134   2.1949   2.7952   3.1103   3.9366   4.1121   4.3111
     4.6874   5.0209   5.4815   5.6243   6.0625   7.1634   7.9901  10.1417
    10.3770  12.5201

          k = 0.0001 0.1197 0.0911 (  3814 PWs)   bands (ev):

   -72.8895 -42.3170 -41.5379 -40.9260 -11.7295 -10.7898 -10.2469 -10.0532
     0.9522   1.7948   2.1058   2.8928   3.0429   3.8037   3.9160   4.4804
     4.6132   5.2150   5.5777   5.5809   5.8382   7.1339   8.0954   9.7918
    10.3382  12.4954

          k = 0.0009 0.1183-0.4718 (  3826 PWs)   bands (ev):

   -72.8894 -42.3171 -41.5380 -40.9260 -11.4049 -11.0622 -10.3257 -10.0942
     1.3102   1.6550   2.4292   3.0418   3.1499   3.5075   3.8989   4.3294
     4.5838   5.0771   5.4362   5.4927   5.6738   7.0903   8.1990   9.5541
    10.3807  13.8571

          k = 0.0006 0.1188-0.2842 (  3817 PWs)   bands (ev):

   -72.8894 -42.3170 -41.5380 -40.9260 -11.5324 -10.7874 -10.4841 -10.0836
     1.2373   1.7895   2.2194   2.9693   3.1101   3.8306   3.8956   4.4299
     4.5015   4.8972   5.4432   5.5435   5.7666   7.1240   8.1198   9.8647
    10.4187  14.0939

          k =-0.0007-0.2385 0.1930 (  3818 PWs)   bands (ev):

   -72.8894 -42.3170 -41.5380 -40.9260 -11.6427 -10.6790 -10.5085 -10.0299
     1.0175   1.8610   2.3996   2.8195   3.1479   3.6038   3.9613   4.2530
     4.5758   4.9930   5.4724   5.5758   6.0637   7.1877   7.9819  10.2114
    10.4164  13.8344

          k =-0.0010-0.2380 0.3807 (  3815 PWs)   bands (ev):

   -72.8894 -42.3170 -41.5380 -40.9260 -11.5909 -10.8596 -10.3703 -10.0411
     1.3392   1.7478   2.0055   2.9055   3.0737   3.8040   3.9378   4.4338
     4.7316   4.8776   5.4296   5.5260   5.8038   7.1593   8.1263   9.8758
    10.3782  13.4192

          k =-0.0001-0.2394-0.1823 (  3830 PWs)   bands (ev):

   -72.8895 -42.3171 -41.5379 -40.9260 -11.4475 -11.1317 -10.2304 -10.0502
     1.1573   1.8293   2.3146   3.0119   3.0264   3.7068   3.9275   4.0936
     4.5946   5.1760   5.4762   5.5515   5.7309   7.1248   8.1651   9.5443
    10.3397  13.7591

          k = 0.2498-0.0605-0.1390 (  3821 PWs)   bands (ev):

   -72.8866 -42.3140 -41.5324 -40.9650 -11.3240 -10.5803 -10.2140 -10.0424
     1.4052   1.6751   2.1273   2.4322   2.7798   3.0135   3.8353   4.0080
     4.2794   5.0099   5.2985   5.5094   6.1180   6.9798   8.0195   9.6900
    10.1033  13.9413

          k = 0.2495-0.0600 0.0486 (  3822 PWs)   bands (ev):

   -72.8866 -42.3140 -41.5324 -40.9650 -11.4229 -10.4534 -10.2595 -10.0089
     1.4220   1.8127   2.0449   2.4454   2.8258   2.8671   3.7101   3.9870
     4.2873   5.0273   5.3848   5.5589   6.0435   7.0698   7.9469   9.7576
    10.0785  13.5882

          k = 0.2503-0.0614-0.5143 (  3827 PWs)   bands (ev):

   -72.8866 -42.3140 -41.5324 -40.9650 -11.2281 -10.5495 -10.3460 -10.0619
     1.3241   1.6832   2.2010   2.5536   2.6743   3.0081   3.9974   4.1216
     4.3872   4.9233   5.0544   5.4747   6.1606   6.9686   8.0155   9.6464
    10.0339  14.7113

          k = 0.2501-0.0609-0.3267 (  3843 PWs)   bands (ev):

   -72.8866 -42.3140 -41.5324 -40.9650 -11.0426 -10.7619 -10.2970 -10.1009
     1.3361   1.6521   2.0957   2.4464   2.7321   3.3570   3.9181   4.2003
     4.3834   4.8546   4.9995   5.4604   6.1831   6.8920   8.0831   9.8106
     9.8573  15.1038

          k = 0.2501 0.0588-0.2356 (  3827 PWs)   bands (ev):

   -72.8866 -42.3140 -41.5324 -40.9650 -11.2281 -10.5495 -10.3460 -10.0619
     1.3244   1.6832   2.2011   2.5530   2.6744   3.0082   3.9971   4.1216
     4.3872   4.9236   5.0545   5.4746   6.1606   6.9690   8.0151   9.6467
    10.0338  14.7110

          k = 0.2499 0.0592-0.0479 (  3822 PWs)   bands (ev):

   -72.8866 -42.3140 -41.5324 -40.9650 -11.4229 -10.4534 -10.2595 -10.0089
     1.4220   1.8127   2.0447   2.4455   2.8255   2.8675   3.7101   3.9871
     4.2871   5.0272   5.3849   5.5589   6.0435   7.0699   7.9469   9.7577
    10.0784  13.5881

          k = 0.2507 0.0579-0.6109 (  3821 PWs)   bands (ev):

   -72.8866 -42.3140 -41.5324 -40.9650 -11.3240 -10.5803 -10.2140 -10.0424
     1.4050   1.6750   2.1273   2.4319   2.7802   3.0135   3.8354   4.0083
     4.2794   5.0097   5.2981   5.5095   6.1181   6.9796   8.0198   9.6898
    10.1032  13.9414

          k = 0.2504 0.0583-0.4232 (  3843 PWs)   bands (ev):

   -72.8866 -42.3140 -41.5324 -40.9650 -11.0426 -10.7619 -10.2970 -10.1009
     1.3362   1.6521   2.0958   2.4465   2.7319   3.3569   3.9184   4.2003
     4.3832   4.8546   4.9992   5.4605   6.1832   6.8921   8.0831   9.8107
     9.8572  15.1038

          k = 0.2491-0.2990 0.0540 (  3838 PWs)   bands (ev):

   -72.8866 -42.3140 -41.5324 -40.9650 -11.1580 -10.6486 -10.3431 -10.0468
     1.4704   1.8448   2.1102   2.4654   2.6734   3.1209   3.7057   4.0364
     4.3744   4.8957   5.1102   5.5289   6.1533   6.9796   8.0304   9.6623
    10.1181  14.7120

          k = 0.2488-0.2985 0.2417 (  3834 PWs)   bands (ev):

   -72.8866 -42.3139 -41.5324 -40.9651 -11.2896 -10.4740 -10.4036 -10.0120
     1.3837   1.9722   2.2627   2.5107   2.6658   2.8889   3.5492   3.9478
     4.4765   4.9095   5.1581   5.5869   6.1130   7.0842   7.9349   9.7063
    10.0833  14.4982

          k = 0.2497-0.2999-0.3213 (  3835 PWs)   bands (ev):

   -72.8866 -42.3140 -41.5324 -40.9650 -11.2722 -10.6433 -10.2254 -10.0310
     1.6122   1.7830   1.9363   2.5649   2.7880   3.0477   3.5672   3.8874
     4.1483   5.0688   5.3487   5.5688   6.1078   6.9840   8.0311   9.7190
    10.1872  13.8674

          k = 0.2494-0.2994-0.1336 (  3816 PWs)   bands (ev):

   -72.8866 -42.3140 -41.5324 -40.9650 -11.0641 -10.8663 -10.1962 -10.0612
     1.5726   1.7186   1.9747   2.5664   2.7527   3.1034   3.5074   4.1675
     4.2889   4.8408   5.3152   5.5383   6.1548   6.8928   8.0970   9.9089
     9.9428  14.6200

          k = 0.2494-0.1797-0.0425 (  3835 PWs)   bands (ev):

   -72.8866 -42.3140 -41.5324 -40.9650 -11.2722 -10.6433 -10.2254 -10.0310
     1.6125   1.7831   1.9365   2.5651   2.7877   3.0470   3.5672   3.8869
     4.1487   5.0688   5.3487   5.5689   6.1079   6.9842   8.0308   9.7190
    10.1873  13.8673

          k = 0.2492-0.1793 0.1451 (  3834 PWs)   bands (ev):

   -72.8866 -42.3139 -41.5324 -40.9651 -11.2896 -10.4740 -10.4036 -10.0120
     1.3838   1.9722   2.2627   2.5112   2.6652   2.8889   3.5490   3.9478
     4.4767   4.9093   5.1582   5.5869   6.1131   7.0841   7.9350   9.7062
    10.0833  14.4982

          k = 0.2500-0.1806-0.4178 (  3837 PWs)   bands (ev):

   -72.8866 -42.3140 -41.5324 -40.9650 -11.1580 -10.6485 -10.3431 -10.0468
     1.4700   1.8448   2.1101   2.4656   2.6737   3.1211   3.7056   4.0367
     4.3742   4.8959   5.1102   5.5288   6.1532   6.9792   8.0308   9.6622
    10.1182  14.7124

          k = 0.2497-0.1802-0.2302 (  3816 PWs)   bands (ev):

   -72.8866 -42.3140 -41.5324 -40.9650 -11.0641 -10.8663 -10.1962 -10.0612
     1.5726   1.7185   1.9746   2.5662   2.7530   3.1034   3.5073   4.1678
     4.2887   4.8408   5.3155   5.5382   6.1547   6.8928   8.0970   9.9090
     9.9428  14.6198

          k =-0.4996 0.1210 0.2781 (  3854 PWs)   bands (ev):

   -72.8843 -42.3110 -41.5268 -41.0038 -10.6355 -10.4370 -10.2827 -10.1028
     0.7107   1.2107   1.8409   2.2713   2.5847   3.4978   3.9002   4.2677
     4.5359   4.7624   4.8058   5.3300   5.9774   6.7960   7.9276   9.9969
    10.1061  15.2997

          k =-0.4999 0.1214 0.4657 (  3836 PWs)   bands (ev):

   -72.8842 -42.3109 -41.5268 -41.0038 -10.6813 -10.4542 -10.2676 -10.0611
     0.9143   1.2300   1.9708   2.3747   2.5960   3.4240   3.6777   4.2288
     4.4024   4.5171   4.9136   5.1632   5.9741   6.9645   7.9120   9.8130
    10.0641  15.8428

          k =-0.4990 0.1201-0.0972 (  3826 PWs)   bands (ev):

   -72.8842 -42.3109 -41.5268 -41.0038 -10.7194 -10.4746 -10.2506 -10.0256
     1.0782   1.3426   2.2140   2.4455   2.6494   3.1027   3.3977   4.1554
     4.3493   4.4909   4.8968   5.0348   5.9650   7.0935   7.8998   9.5980
    10.0793  16.0927

          k =-0.4992 0.2402 0.1815 (  3844 PWs)   bands (ev):

   -72.8843 -42.3110 -41.5268 -41.0038 -10.6353 -10.4377 -10.2818 -10.1033
     0.7755   1.1130   1.8484   2.2709   2.5741   3.6505   3.8614   4.2019
     4.5280   4.7505   4.8169   5.3256   5.9761   6.7994   7.9225  10.0121
    10.0812  15.6095

          k =-0.4995 0.2407 0.3692 (  3834 PWs)   bands (ev):

   -72.8842 -42.3109 -41.5268 -41.0038 -10.6805 -10.4567 -10.2652 -10.0618
     0.8987   1.2670   1.9637   2.2335   2.7979   3.3418   3.6755   4.2141
     4.4069   4.5180   4.9244   5.1717   5.9725   6.9692   7.9114   9.8019
    10.0778  15.6316

          k =-0.4987 0.2393-0.1938 (  3823 PWs)   bands (ev):

   -72.8842 -42.3109 -41.5268 -41.0038 -10.7213 -10.4685 -10.2564 -10.0239
     1.0921   1.3114   2.1810   2.5343   2.6894   3.0010   3.4680   4.1320
     4.2829   4.4842   4.8776   5.0961   5.9694   7.0979   7.8999   9.6083
    10.0711  16.0485

          k =-0.4990 0.2398-0.0061 (  3834 PWs)   bands (ev):

   -72.8842 -42.3109 -41.5268 -41.0038 -10.6805 -10.4568 -10.2650 -10.0618
     0.8989   1.2667   1.9637   2.2333   2.7984   3.3418   3.6756   4.2136
     4.4072   4.5182   4.9241   5.1717   5.9725   6.9693   7.9115   9.8017
    10.0777  15.6313

          k =-0.5003-0.1175 0.4711 (  3854 PWs)   bands (ev):

   -72.8843 -42.3110 -41.5268 -41.0038 -10.6355 -10.4370 -10.2826 -10.1030
     0.7111   1.2102   1.8407   2.2717   2.5847   3.4982   3.9000   4.2672
     4.5360   4.7623   4.8057   5.3300   5.9775   6.7963   7.9276   9.9968
    10.1061  15.2991

          k =-0.5006-0.1171 0.6588 (  3836 PWs)   bands (ev):

   -72.8842 -42.3109 -41.5268 -41.0038 -10.6813 -10.4541 -10.2676 -10.0611
     0.9144   1.2299   1.9707   2.3747   2.5958   3.4242   3.6780   4.2282
     4.4024   4.5173   4.9136   5.1632   5.9741   6.9647   7.9118   9.8130
    10.0641  15.8422

          k =-0.4997-0.1184 0.0958 (  3826 PWs)   bands (ev):

   -72.8842 -42.3109 -41.5268 -41.0038 -10.7194 -10.4744 -10.2508 -10.0256
     1.0782   1.3426   2.2139   2.4457   2.6491   3.1031   3.3974   4.1553
     4.3489   4.4912   4.8967   5.0351   5.9650   7.0936   7.8997   9.5981
    10.0794  16.0929

     the Fermi energy is     7.0453 ev

!    total energy              =    -520.62036218 Ry
     total all-electron energy =     -3720.873621 Ry
     estimated scf accuracy    <          6.5E-09 Ry
     smearing contrib. (-TS)   =      -0.00491528 Ry
     internal energy E=F+TS    =    -520.61544689 Ry

     The total energy is F=E-TS. E is the sum of the following terms:
     one-electron contribution =    -240.57265198 Ry
     hartree contribution      =     145.35849141 Ry
     xc contribution           =     -61.24971172 Ry
     ewald contribution        =    -185.65514102 Ry
     Hubbard energy            =       0.24477611 Ry
     one-center paw contrib.   =    -178.74120970 Ry

     convergence has been achieved in  23 iterations
     force_hub    :    230.56s CPU     34.29s WALL (      16 calls)
     dndtau       :    200.91s CPU     30.18s WALL (   12096 calls)
     dprojdtau    :     30.25s CPU      4.56s WALL (   12096 calls)
     calc_doverla :    107.59s CPU     16.29s WALL (   12096 calls)
     matel_dSdtau :    147.64s CPU     21.91s WALL (   24192 calls)

     Forces acting on atoms (cartesian axes, Ry/au):

     atom    1 type  1   force =    -0.00005453   -0.00012179   -0.00009051
     atom    2 type  1   force =     0.00001673   -0.00021824    0.00015274
     atom    3 type  3   force =    -0.00000867   -0.00009979    0.00013828
     atom    4 type  2   force =    -0.00002128    0.00003970    0.00008681
     atom    5 type  2   force =     0.00000471    0.00022502   -0.00008361
     atom    6 type  2   force =    -0.00003889    0.00021277   -0.00008582
     atom    7 type  2   force =     0.00010194   -0.00003768   -0.00011789

     Total force =     0.000523     Total SCF correction =     0.000098
     SCF correction compared to forces is large: reduce conv_thr to get better values


     Computing stress (Cartesian axis) and pressure

     stres_hub    :    653.95s CPU     86.13s WALL (      16 calls)
     dprojdepsilo :    536.08s CPU     70.12s WALL (    5184 calls)
     dprojdeps1   :     57.38s CPU      7.68s WALL (    5184 calls)
     dprojdeps2   :    309.86s CPU     39.27s WALL (    5184 calls)
     dprojdeps3   :    168.70s CPU     23.15s WALL (    5184 calls)
          total   stress  (Ry/bohr**3)                   (kbar)     P=       -0.08
  -0.00000205  -0.00000007   0.00000008           -0.30       -0.01        0.01
  -0.00000007   0.00000033  -0.00000035           -0.01        0.05       -0.05
   0.00000008  -0.00000035   0.00000002            0.01       -0.05        0.00


     Writing all to output data dir .\out\\qgan.save\ :
     XML data file, charge density, pseudopotentials, collected wavefunctions
 
     init_run     :     22.55s CPU      3.71s WALL (       2 calls)
     electrons    :   5072.27s CPU    628.33s WALL (      16 calls)
     update_pot   :     13.86s CPU      2.37s WALL (      14 calls)
     forces       :    269.20s CPU     40.65s WALL (      16 calls)
     stress       :    850.12s CPU    114.82s WALL (      16 calls)

     Called by init_run:
     wfcinit      :     15.59s CPU      2.11s WALL (       2 calls)
     potinit      :      2.78s CPU      0.40s WALL (       2 calls)
     hinit0       :      1.81s CPU      0.78s WALL (       2 calls)

     Called by electrons:
     c_bands      :   3752.12s CPU    451.50s WALL (     206 calls)
     sum_band     :    827.16s CPU    107.01s WALL (     206 calls)
     v_of_rho     :     35.30s CPU      4.91s WALL (     214 calls)
     newd         :    269.97s CPU     39.77s WALL (     214 calls)
     PAW_pot      :    218.69s CPU     30.74s WALL (     228 calls)
     mix_rho      :      6.62s CPU      1.00s WALL (     206 calls)

     Called by c_bands:
     init_us_2    :    303.92s CPU     39.12s WALL (   18288 calls)
     cegterg      :   3246.83s CPU    388.57s WALL (    7494 calls)

     Called by *egterg:
     cdiaghg      :    144.45s CPU     16.64s WALL (   42260 calls)
     h_psi        :   2434.12s CPU    292.44s WALL (   43158 calls)
     s_psi        :     88.14s CPU     11.32s WALL (   46038 calls)
     g_psi        :     18.64s CPU      2.23s WALL (   35592 calls)

     Called by h_psi:
     h_psi:calbec :     88.66s CPU      9.99s WALL (   43158 calls)
     vloc_psi     :   2167.36s CPU    261.22s WALL (   43158 calls)
                                        0.00s GPU  (   43158 calls)
     add_vuspsi   :     91.41s CPU     11.09s WALL (   43158 calls)
     vhpsi        :     46.48s CPU      5.68s WALL (   43158 calls)

     General routines
     calbec       :    652.20s CPU     86.48s WALL (  507732 calls)
     fft          :     11.98s CPU      1.75s WALL (    3172 calls)
     ffts         :      1.03s CPU      0.08s WALL (     420 calls)
     fftw         :   1673.27s CPU    218.41s WALL ( 1516318 calls)
     interpolate  :      4.17s CPU      0.40s WALL (     214 calls)
 
     Parallel routines

     Hubbard U routines
     new_ns       :     12.97s CPU      1.79s WALL (     206 calls)
     vhpsi        :     46.48s CPU      5.68s WALL (   43158 calls)
     force_hub    :    230.56s CPU     34.29s WALL (      16 calls)
     stres_hub    :    653.95s CPU     86.13s WALL (      16 calls)
 
     PWSCF        :      1h44m CPU  13m18.75s WALL

 
   This run was terminated on:  12:58:21  18Apr2026            

=------------------------------------------------------------------------------=
   JOB DONE.
=------------------------------------------------------------------------------=
