Mg2 Mn1 O4
1.0
   3.2113272007441518    0.2377310476823922    1.2064300214119932
   0.1081168561029208    5.1243377562190995    3.8907315665589581
  -0.1587743616213926    0.3305277168996285    5.5004816689730944
Mg Mn O
2 1 4
direct
   0.4782254628085101    0.5855265303521744    0.3902064327601422 Mg
  -0.1420769276369051    0.0809260502578047    0.1530015100812031 Mg
   0.1231178363350473    0.0967696088440403    0.5985568528778936 Mn
   0.3182271070878603    0.9171718644252933    0.3962142518959505 O
   0.9401103781738503    0.3629003703827162    0.6739532022529622 O
   0.6488297275425250    0.2439740514264508    0.3952861923744785 O
   0.0786464716643299   -0.1861531703541369    0.0304996355077918 O
