Mg1 Mn2 O3
1.0
   5.4718555308426602    0.0893904840449199    2.0301096970591224
   0.8673018486004599    3.3738375417987592    0.1838528658544738
   0.0758552694295758   -0.2399972149377864    4.2290717041823465
Mg Mn O
1 2 3
direct
  -0.1734338448015934   -0.2090375645640885   -0.1467342746364382 Mg
   0.5790240508010323    0.4121575308321577    0.4765093080292149 Mn
   0.1966802819485797    0.3820017432396000    0.1684737808161349 Mn
   0.8281665829867020    0.8015129967918144    0.3518807753870782 O
   0.5977208433513844    0.3886214340360247   -0.0322858228294927 O
   0.1875796176088262    0.4026445454924099    0.6737809432834949 O
