Mg1 Mn1 O3
1.0
   3.8237144932992257   -0.6717480881966249    4.4865321450539755
   2.3067128164240400    2.0376524645968428    3.9803633911831975
   2.0244769769045114   -0.7071757106849708    9.8695166262874618
Mg Mn O
1 1 3
direct
  -0.0314596736571729    0.2004871307006665   -0.0833221179227199 Mg
   0.8518882591648258    0.4370309295546457    0.5385334621517177 Mn
   0.2970016701904670    0.7046870243764503    0.5931812499045750 O
   0.6068048273948152    0.5570264600892070    0.7785257585482525 O
   0.2347893305357625   -0.2858933194531320    0.1479963306387393 O
