
     Program PWSCF v.7.5 starts on 18Apr2026 at 12:58:21 
        Git branch: HEAD
        Last git commit: 770a0b2d12928a67048e2f3da8d10d057e52179e-dirty
        Last git commit date: Tue Aug 19 09:57:12 2025 +0000
        Last git commit subject: Merge branch 'QE-7.5-RC' into 'master'

     This program is part of the open-source Quantum ESPRESSO suite
     for quantum simulation of materials; please cite
         "P. Giannozzi et al., J. Phys.:Condens. Matter 21 395502 (2009);
         "P. Giannozzi et al., J. Phys.:Condens. Matter 29 465901 (2017);
         "P. Giannozzi et al., J. Chem. Phys. 152 154105 (2020);
          URL http://www.quantum-espresso.org", 
     in publications or presentations arising from this work. More details at
     http://www.quantum-espresso.org/quote

     Parallel version (MPI & OpenMP), running on      16 processor cores
     Number of MPI processes:                 1
     Threads/MPI process:                    16

     MPI processes distributed on     1 nodes
     0 MiB available memory on the printing compute node when the environment starts
 
     Reading input from pw_relax.in

     Current dimensions of program PWSCF are:
     Max number of different atomic species (ntypx) = 10
     Max number of k-points (npk) =  40000
     Max angular momentum in pseudopotentials (lmaxx) =  4
     file Mg.pbe-n-kjpaw_psl.0.3.0.UPF: wavefunction(s)  3S renormalized
     file O.pbe-n-kjpaw_psl.1.0.0.UPF: wavefunction(s)  2S 2P renormalized
     file Mn.pbe-spn-kjpaw_psl.0.3.1.UPF: wavefunction(s)  3P 3D renormalized
 
     Subspace diagonalization in iterative solution of the eigenvalue problem:
     a serial algorithm will be used

 
     G-vector sticks info
     --------------------
     sticks:   dense  smooth     PW     G-vecs:    dense   smooth      PW
     Sum        2523    1255    391                88509    31287    5515
 
     Using Slab Decomposition
 


     bravais-lattice index     =            0
     lattice parameter (alat)  =       5.5883  a.u.
     unit-cell volume          =     498.0744 (a.u.)^3
     number of atoms/cell      =            7
     number of atomic types    =            3
     number of electrons       =        43.00
     number of Kohn-Sham states=           26
     kinetic-energy cutoff     =      60.0000  Ry
     charge density cutoff     =     480.0000  Ry
     scf convergence threshold =      1.0E-06
     mixing beta               =       0.7000
     number of iterations used =            8  plain     mixing
     energy convergence thresh.=      1.0E-04
     force convergence thresh. =      1.0E-03
     press convergence thresh. =      5.0E-01
     Exchange-correlation= SLA  PW   PBX  PBC
                           (   1   4   3   4   0   0   0)
     nstep                     =           50

     Hubbard projectors: ortho-atomic
     Hubbard parameters of DFT+U (Dudarev formulation) in eV:
     U(Mn-3d) =  3.9000

     Internal variables: lda_plus_u = T, lda_plus_u_kind = 0

     Internal variables: orbital_resolved = F, hub_pot_fix = F, apply_U =  F

     celldm(1)=   5.588342  celldm(2)=   0.000000  celldm(3)=   0.000000
     celldm(4)=   0.000000  celldm(5)=   0.000000  celldm(6)=   0.000000

     crystal axes: (cart. coord. in units of alat)
               a(1) = (   1.000000   0.000000   0.000000 )  
               a(2) = (   0.507288   2.110715   0.000000 )  
               a(3) = (   0.999418   1.088501   1.352122 )  

     reciprocal axes: (cart. coord. in units 2 pi/alat)
               b(1) = (  1.000000 -0.240340 -0.545667 )  
               b(2) = (  0.000000  0.473773 -0.381402 )  
               b(3) = (  0.000000  0.000000  0.739578 )  


     PseudoPot. # 1 for Mg read from file:
     ..\..\pseudo\\Mg.pbe-n-kjpaw_psl.0.3.0.UPF
     MD5 check sum: d3e4124f57d03672d8f0e29aa18e2cc4
     Pseudo is Projector augmented-wave + core cor, Zval =  2.0
     Generated using &quot;atomic&quot; code by A. Dal Corso  v.6.3
     Shape of augmentation charge: PSQ
     Using radial grid of 1129 points,  4 beta functions with: 
                l(1) =   0
                l(2) =   0
                l(3) =   1
                l(4) =   1
     Q(r) pseudized with 0 coefficients 


     PseudoPot. # 2 for O  read from file:
     ..\..\pseudo\\O.pbe-n-kjpaw_psl.1.0.0.UPF
     MD5 check sum: e99d9cef9b487d1ca56f5b95ecd0fd7a
     Pseudo is Projector augmented-wave + core cor, Zval =  6.0
     Generated using &quot;atomic&quot; code by A. Dal Corso  v.6.3
     Shape of augmentation charge: PSQ
     Using radial grid of 1095 points,  4 beta functions with: 
                l(1) =   0
                l(2) =   0
                l(3) =   1
                l(4) =   1
     Q(r) pseudized with 0 coefficients 


     PseudoPot. # 3 for Mn read from file:
     ..\..\pseudo\\Mn.pbe-spn-kjpaw_psl.0.3.1.UPF
     MD5 check sum: ba19e6d7ccbc12830efad05ba8577d9c
     Pseudo is Projector augmented-wave + core cor, Zval = 15.0
     Generated using &quot;atomic&quot; code by A. Dal Corso  v.6.2.2
     Shape of augmentation charge: PSQ
     Using radial grid of 1187 points,  6 beta functions with: 
                l(1) =   0
                l(2) =   0
                l(3) =   1
                l(4) =   1
                l(5) =   2
                l(6) =   2
     Q(r) pseudized with 0 coefficients 


     atomic species   valence    mass     pseudopotential
     Mg                2.00    24.30500     Mg( 1.00)
     O                 6.00    15.99900     O ( 1.00)
     Mn               15.00    54.93800     Mn( 1.00)

     No symmetry found



   Cartesian axes

     site n.     atom                  positions (alat units)
         1        Mg     tau(   1) = (   1.1574345   1.6542347   0.5206063  )
         2        Mg     tau(   2) = (   1.1605662   0.3634180   0.1344988  )
         3        Mn     tau(   3) = (   1.6606008   0.8110041   0.8641989  )
         4        O      tau(   4) = (   1.1684117   2.3448336   0.6029701  )
         5        O      tau(   5) = (   1.6587126   1.4731835   0.9894560  )
         6        O      tau(   6) = (   1.1597032   0.9562312   0.4669803  )
         7        O      tau(   7) = (   1.6679249   2.8566192   1.3252714  )

     number of k points=    36  Marzari-Vanderbilt smearing, width (Ry)=  0.0200
                       cart. coord. in units 2pi/alat
        k(    1) = (   0.0000000   0.0000000   0.0000000), wk =   0.0312500
        k(    2) = (   0.0000000   0.0000000   0.1848946), wk =   0.0625000
        k(    3) = (   0.0000000   0.0000000  -0.3697892), wk =   0.0312500
        k(    4) = (   0.0000000   0.1184433  -0.0953506), wk =   0.0625000
        k(    5) = (   0.0000000   0.1184433   0.0895441), wk =   0.0625000
        k(    6) = (   0.0000000   0.1184433  -0.4651398), wk =   0.0625000
        k(    7) = (   0.0000000   0.1184433  -0.2802452), wk =   0.0625000
        k(    8) = (   0.0000000  -0.2368865   0.1907011), wk =   0.0312500
        k(    9) = (   0.0000000  -0.2368865   0.3755957), wk =   0.0625000
        k(   10) = (   0.0000000  -0.2368865  -0.1790881), wk =   0.0312500
        k(   11) = (   0.2500000  -0.0600849  -0.1364168), wk =   0.0625000
        k(   12) = (   0.2500000  -0.0600849   0.0484778), wk =   0.0625000
        k(   13) = (   0.2500000  -0.0600849  -0.5062061), wk =   0.0625000
        k(   14) = (   0.2500000  -0.0600849  -0.3213115), wk =   0.0625000
        k(   15) = (   0.2500000   0.0583584  -0.2317674), wk =   0.0625000
        k(   16) = (   0.2500000   0.0583584  -0.0468728), wk =   0.0625000
        k(   17) = (   0.2500000   0.0583584  -0.6015566), wk =   0.0625000
        k(   18) = (   0.2500000   0.0583584  -0.4166620), wk =   0.0625000
        k(   19) = (   0.2500000  -0.2969714   0.0542843), wk =   0.0625000
        k(   20) = (   0.2500000  -0.2969714   0.2391789), wk =   0.0625000
        k(   21) = (   0.2500000  -0.2969714  -0.3155049), wk =   0.0625000
        k(   22) = (   0.2500000  -0.2969714  -0.1306103), wk =   0.0625000
        k(   23) = (   0.2500000  -0.1785281  -0.0410663), wk =   0.0625000
        k(   24) = (   0.2500000  -0.1785281   0.1438283), wk =   0.0625000
        k(   25) = (   0.2500000  -0.1785281  -0.4108555), wk =   0.0625000
        k(   26) = (   0.2500000  -0.1785281  -0.2259609), wk =   0.0625000
        k(   27) = (  -0.5000000   0.1201698   0.2728337), wk =   0.0312500
        k(   28) = (  -0.5000000   0.1201698   0.4577283), wk =   0.0625000
        k(   29) = (  -0.5000000   0.1201698  -0.0969556), wk =   0.0312500
        k(   30) = (  -0.5000000   0.2386130   0.1774831), wk =   0.0625000
        k(   31) = (  -0.5000000   0.2386130   0.3623777), wk =   0.0625000
        k(   32) = (  -0.5000000   0.2386130  -0.1923061), wk =   0.0625000
        k(   33) = (  -0.5000000   0.2386130  -0.0074115), wk =   0.0625000
        k(   34) = (  -0.5000000  -0.1167167   0.4635348), wk =   0.0312500
        k(   35) = (  -0.5000000  -0.1167167   0.6484294), wk =   0.0625000
        k(   36) = (  -0.5000000  -0.1167167   0.0937456), wk =   0.0312500

     Dense  grid:    88509 G-vectors     FFT dimensions: (  40,  90,  80)

     Smooth grid:    31287 G-vectors     FFT dimensions: (  27,  60,  60)

     Estimated max dynamical RAM per process >     415.90 MB

     Check: negative core charge=   -0.000002

     Initial potential from superposition of free atoms

     starting charge      42.9976, renormalised to      43.0000

     STARTING HUBBARD OCCUPATIONS:

     =================== HUBBARD OCCUPATIONS ===================
     ------------------------ ATOM    3 ------------------------
     Tr[ns(  3)] =   5.00000
     eigenvalues:
       0.500  0.500  0.500  0.500  0.500
     eigenvectors (columns):
       1.000  0.000  0.000  0.000  0.000
       0.000  1.000  0.000  0.000  0.000
       0.000  0.000  1.000  0.000  0.000
       0.000  0.000  0.000  1.000  0.000
       0.000  0.000  0.000  0.000  1.000
     occupation matrix ns (before diag.):
       0.500  0.000  0.000  0.000  0.000
       0.000  0.500  0.000  0.000  0.000
       0.000  0.000  0.500  0.000  0.000
       0.000  0.000  0.000  0.500  0.000
       0.000  0.000  0.000  0.000  0.500

     Number of occupied Hubbard levels =    5.0000

     Atomic wfc used for Hubbard projectors are orthogonalized

     Starting wfcs are   34 randomized atomic wfcs
     Checking if some PAW data can be deallocated... 

     total cpu time spent up to now is        2.0 secs

     Self-consistent Calculation

     iteration #  1     ecut=    60.00 Ry     beta= 0.70
     Davidson diagonalization with overlap
     ethr =  1.00E-02,  avg # of iterations =  2.0

     =================== HUBBARD OCCUPATIONS ===================
     ------------------------ ATOM    3 ------------------------
     Tr[ns(  3)] =   4.11728
     eigenvalues:
       0.212  0.224  0.456  0.556  0.610
     eigenvectors (columns):
       0.006  0.238  0.424  0.068 -0.871
      -0.970  0.026  0.003  0.241  0.020
       0.010  0.444 -0.848  0.026 -0.289
       0.025  0.863  0.319 -0.029  0.389
      -0.241  0.010 -0.002 -0.967 -0.076
     occupation matrix ns (before diag.):
       0.560 -0.001  0.014 -0.100  0.003
      -0.001  0.232 -0.001  0.001 -0.081
       0.014 -0.001  0.423 -0.106  0.000
      -0.100  0.001 -0.106  0.307 -0.002
       0.003 -0.081  0.000 -0.002  0.536

     Number of occupied Hubbard levels =    4.1173

     total cpu time spent up to now is        4.5 secs

     total energy              =    -518.73893875 Ry
     estimated scf accuracy    <       2.73843422 Ry

     iteration #  2     ecut=    60.00 Ry     beta= 0.70
     Davidson diagonalization with overlap
     ethr =  6.37E-03,  avg # of iterations =  5.5

     total cpu time spent up to now is        9.6 secs

     total energy              =    -517.39087015 Ry
     estimated scf accuracy    <      36.24515116 Ry

     iteration #  3     ecut=    60.00 Ry     beta= 0.70
     Davidson diagonalization with overlap
     ethr =  6.37E-03,  avg # of iterations =  3.2

     total cpu time spent up to now is       12.5 secs

     total energy              =    -520.29176535 Ry
     estimated scf accuracy    <       1.09692130 Ry

     iteration #  4     ecut=    60.00 Ry     beta= 0.70
     Davidson diagonalization with overlap
     ethr =  2.55E-03,  avg # of iterations =  2.2

     total cpu time spent up to now is       15.5 secs

     total energy              =    -520.45448962 Ry
     estimated scf accuracy    <       0.21518985 Ry

     iteration #  5     ecut=    60.00 Ry     beta= 0.70
     Davidson diagonalization with overlap
     ethr =  5.00E-04,  avg # of iterations =  4.7

     total cpu time spent up to now is       20.3 secs

     total energy              =    -520.58957240 Ry
     estimated scf accuracy    <       0.08648859 Ry

     iteration #  6     ecut=    60.00 Ry     beta= 0.70
     Davidson diagonalization with overlap
     ethr =  2.01E-04,  avg # of iterations =  1.4

     total cpu time spent up to now is       23.3 secs

     total energy              =    -520.63606651 Ry
     estimated scf accuracy    <       0.07152248 Ry

     iteration #  7     ecut=    60.00 Ry     beta= 0.70
     Davidson diagonalization with overlap
     ethr =  1.66E-04,  avg # of iterations =  4.8

     total cpu time spent up to now is       26.6 secs

     total energy              =    -520.64203417 Ry
     estimated scf accuracy    <       0.27670014 Ry

     iteration #  8     ecut=    60.00 Ry     beta= 0.70
     Davidson diagonalization with overlap
     ethr =  1.66E-04,  avg # of iterations =  1.9

     total cpu time spent up to now is       29.1 secs

     total energy              =    -520.62134558 Ry
     estimated scf accuracy    <       0.16957090 Ry

     iteration #  9     ecut=    60.00 Ry     beta= 0.70
     Davidson diagonalization with overlap
     ethr =  1.66E-04,  avg # of iterations =  2.0

     total cpu time spent up to now is       31.5 secs

     total energy              =    -520.59951917 Ry
     estimated scf accuracy    <       0.09686902 Ry

     iteration # 10     ecut=    60.00 Ry     beta= 0.70
     Davidson diagonalization with overlap
     ethr =  1.66E-04,  avg # of iterations =  2.0

     total cpu time spent up to now is       33.8 secs

     total energy              =    -520.59802281 Ry
     estimated scf accuracy    <       0.03843230 Ry

     iteration # 11     ecut=    60.00 Ry     beta= 0.70
     Davidson diagonalization with overlap
     ethr =  8.94E-05,  avg # of iterations =  3.2

     total cpu time spent up to now is       36.2 secs

     total energy              =    -520.60607298 Ry
     estimated scf accuracy    <       0.00456012 Ry

     iteration # 12     ecut=    60.00 Ry     beta= 0.70
     Davidson diagonalization with overlap
     ethr =  1.06E-05,  avg # of iterations =  6.9

     total cpu time spent up to now is       39.8 secs

     total energy              =    -520.61006008 Ry
     estimated scf accuracy    <       0.00157396 Ry

     iteration # 13     ecut=    60.00 Ry     beta= 0.70
     Davidson diagonalization with overlap
     ethr =  3.66E-06,  avg # of iterations =  4.4

     total cpu time spent up to now is       44.6 secs

     total energy              =    -520.61040704 Ry
     estimated scf accuracy    <       0.00013653 Ry

     iteration # 14     ecut=    60.00 Ry     beta= 0.70
     Davidson diagonalization with overlap
     c_bands:  2 eigenvalues not converged
     c_bands:  1 eigenvalues not converged
     c_bands:  2 eigenvalues not converged
     c_bands:  2 eigenvalues not converged
     c_bands:  1 eigenvalues not converged
     c_bands:  4 eigenvalues not converged
     c_bands:  4 eigenvalues not converged
     c_bands:  5 eigenvalues not converged
     c_bands:  1 eigenvalues not converged
     c_bands:  2 eigenvalues not converged
     c_bands:  2 eigenvalues not converged
     c_bands:  3 eigenvalues not converged
     c_bands:  3 eigenvalues not converged
     c_bands:  5 eigenvalues not converged
     c_bands:  1 eigenvalues not converged
     c_bands:  3 eigenvalues not converged
     c_bands:  2 eigenvalues not converged
     c_bands:  2 eigenvalues not converged
     c_bands:  4 eigenvalues not converged
     c_bands:  3 eigenvalues not converged
     c_bands:  4 eigenvalues not converged
     c_bands:  4 eigenvalues not converged
     c_bands:  5 eigenvalues not converged
     c_bands:  1 eigenvalues not converged
     c_bands:  4 eigenvalues not converged
     ethr =  3.18E-07,  avg # of iterations = 19.6

     total cpu time spent up to now is       53.3 secs

     total energy              =    -520.61080724 Ry
     estimated scf accuracy    <       0.00102822 Ry

     iteration # 15     ecut=    60.00 Ry     beta= 0.70
     Davidson diagonalization with overlap
     ethr =  3.18E-07,  avg # of iterations =  7.9

     total cpu time spent up to now is       58.8 secs

     total energy              =    -520.61085853 Ry
     estimated scf accuracy    <       0.00016860 Ry

     iteration # 16     ecut=    60.00 Ry     beta= 0.70
     Davidson diagonalization with overlap
     ethr =  3.18E-07,  avg # of iterations =  2.4

     total cpu time spent up to now is       62.6 secs

     total energy              =    -520.61088456 Ry
     estimated scf accuracy    <       0.00001943 Ry

     iteration # 17     ecut=    60.00 Ry     beta= 0.70
     Davidson diagonalization with overlap
     c_bands:  1 eigenvalues not converged
     c_bands:  4 eigenvalues not converged
     c_bands:  5 eigenvalues not converged
     c_bands:  2 eigenvalues not converged
     c_bands:  3 eigenvalues not converged
     ethr =  4.52E-08,  avg # of iterations = 12.6

     total cpu time spent up to now is       68.0 secs

     total energy              =    -520.61091804 Ry
     estimated scf accuracy    <       0.00003619 Ry

     iteration # 18     ecut=    60.00 Ry     beta= 0.70
     Davidson diagonalization with overlap
     ethr =  4.52E-08,  avg # of iterations =  2.6

     total cpu time spent up to now is       71.3 secs

     total energy              =    -520.61091896 Ry
     estimated scf accuracy    <       0.00000990 Ry

     iteration # 19     ecut=    60.00 Ry     beta= 0.70
     Davidson diagonalization with overlap
     ethr =  2.30E-08,  avg # of iterations =  7.7

     total cpu time spent up to now is       75.7 secs

     total energy              =    -520.61094792 Ry
     estimated scf accuracy    <       0.00004107 Ry

     iteration # 20     ecut=    60.00 Ry     beta= 0.70
     Davidson diagonalization with overlap
     ethr =  2.30E-08,  avg # of iterations =  1.2

     total cpu time spent up to now is       78.3 secs

     total energy              =    -520.61092115 Ry
     estimated scf accuracy    <       0.00003345 Ry

     iteration # 21     ecut=    60.00 Ry     beta= 0.70
     Davidson diagonalization with overlap
     ethr =  2.30E-08,  avg # of iterations =  6.0

     total cpu time spent up to now is       82.3 secs

     total energy              =    -520.61095866 Ry
     estimated scf accuracy    <       0.00001218 Ry

     iteration # 22     ecut=    60.00 Ry     beta= 0.70
     Davidson diagonalization with overlap
     ethr =  2.30E-08,  avg # of iterations =  1.4

     total cpu time spent up to now is       85.0 secs

     total energy              =    -520.61084906 Ry
     estimated scf accuracy    <       0.00000797 Ry

     iteration # 23     ecut=    60.00 Ry     beta= 0.70
     Davidson diagonalization with overlap
     ethr =  1.85E-08,  avg # of iterations =  3.5

     total cpu time spent up to now is       88.5 secs

     total energy              =    -520.61097871 Ry
     estimated scf accuracy    <       0.00003067 Ry

     iteration # 24     ecut=    60.00 Ry     beta= 0.70
     Davidson diagonalization with overlap
     ethr =  1.85E-08,  avg # of iterations =  2.1

     total cpu time spent up to now is       91.1 secs

     total energy              =    -520.61100193 Ry
     estimated scf accuracy    <       0.00001601 Ry

     iteration # 25     ecut=    60.00 Ry     beta= 0.70
     Davidson diagonalization with overlap
     ethr =  1.85E-08,  avg # of iterations =  2.0

     total cpu time spent up to now is       93.4 secs

     total energy              =    -520.61097761 Ry
     estimated scf accuracy    <       0.00000689 Ry

     iteration # 26     ecut=    60.00 Ry     beta= 0.70
     Davidson diagonalization with overlap
     ethr =  1.60E-08,  avg # of iterations =  3.2

     total cpu time spent up to now is       95.9 secs

     total energy              =    -520.61098800 Ry
     estimated scf accuracy    <       0.00000134 Ry

     iteration # 27     ecut=    60.00 Ry     beta= 0.70
     Davidson diagonalization with overlap
     ethr =  3.11E-09,  avg # of iterations =  9.1

     total cpu time spent up to now is      100.3 secs

     End of self-consistent calculation

     =================== HUBBARD OCCUPATIONS ===================
     ------------------------ ATOM    3 ------------------------
     Tr[ns(  3)] =   5.21669
     eigenvalues:
       0.194  0.320  0.400  0.718  0.976
     eigenvectors (columns):
      -0.555  0.000 -0.204 -0.005  0.807
      -0.000 -0.956 -0.007  0.293  0.000
       0.801  0.004 -0.394  0.003  0.451
      -0.226  0.007 -0.896  0.002 -0.381
       0.004 -0.293 -0.005 -0.956 -0.004
     occupation matrix ns (before diag.):
       0.712 -0.000  0.301 -0.203  0.000
      -0.000  0.354  0.001  0.001 -0.111
       0.301  0.001  0.385 -0.062 -0.002
      -0.203  0.001 -0.062  0.473  0.000
       0.000 -0.111 -0.002  0.000  0.684

     Number of occupied Hubbard levels =    5.2167

          k = 0.0000 0.0000 0.0000 (  3893 PWs)   bands (ev):

   -73.2327 -42.6311 -41.8571 -41.2837 -12.0185 -10.5968 -10.5395 -10.3955
     0.6118   1.3810   2.1054   2.4301   2.7947   3.8320   3.9645   4.3069
     4.4789   5.0531   5.3947   5.4469   5.7357   6.5691   7.6804   9.5192
    10.0901  11.3316

          k = 0.0000 0.0000 0.1849 (  3890 PWs)   bands (ev):

   -73.2326 -42.6312 -41.8571 -41.2837 -11.8289 -10.8072 -10.6169 -10.3583
     0.8158   1.6151   1.9159   2.8078   2.8119   3.7879   3.9220   4.3158
     4.4131   4.7134   5.2373   5.3611   5.5013   6.5344   7.7797   9.2585
    10.1375  12.4511

          k = 0.0000 0.0000-0.3698 (  3892 PWs)   bands (ev):

   -73.2325 -42.6312 -41.8571 -41.2837 -11.5096 -11.1074 -10.6962 -10.3607
     1.1609   1.5797   2.3457   2.8231   2.8528   3.3329   3.7694   4.2939
     4.5026   4.5112   5.1551   5.2695   5.4225   6.4986   7.8277   9.0691
    10.1855  14.1304

          k = 0.0000 0.1184-0.0954 (  3887 PWs)   bands (ev):

   -73.2326 -42.6311 -41.8571 -41.2837 -11.9151 -10.6968 -10.6053 -10.3713
     0.8495   1.3654   2.0233   2.6034   2.8296   3.8360   3.9648   4.2732
     4.4357   4.8240   5.1826   5.3893   5.7237   6.5979   7.6993   9.5787
    10.1340  12.1226

          k = 0.0000 0.1184 0.0895 (  3903 PWs)   bands (ev):

   -73.2327 -42.6312 -41.8571 -41.2837 -11.8800 -10.8808 -10.5390 -10.2866
     0.7344   1.7223   1.9472   2.6053   2.7753   3.6691   3.8272   4.4163
     4.4277   4.9475   5.2380   5.3368   5.6041   6.5726   7.7720   9.2625
    10.0928  12.0684

          k = 0.0000 0.1184-0.4651 (  3919 PWs)   bands (ev):

   -73.2326 -42.6312 -41.8571 -41.2837 -11.5881 -11.1441 -10.6232 -10.2927
     1.0969   1.5233   2.3277   2.7884   2.8633   3.3950   3.8007   4.0374
     4.5292   4.7746   5.1780   5.2374   5.4523   6.5360   7.8627   9.0476
    10.1407  13.4253

          k = 0.0000 0.1184-0.2802 (  3898 PWs)   bands (ev):

   -73.2325 -42.6312 -41.8571 -41.2837 -11.6761 -10.9312 -10.6944 -10.3484
     1.0734   1.6292   2.0347   2.7693   2.8452   3.6604   3.7907   4.2685
     4.3844   4.6541   5.1562   5.2981   5.4653   6.5658   7.8054   9.3419
    10.1813  13.7152

          k = 0.0000-0.2369 0.1907 (  3906 PWs)   bands (ev):

   -73.2326 -42.6311 -41.8571 -41.2837 -11.7814 -10.8732 -10.6179 -10.3533
     0.8712   1.6605   2.1641   2.6985   2.8669   3.4193   3.8364   4.2422
     4.3527   4.8055   5.1453   5.3317   5.7322   6.6258   7.7078   9.6461
    10.1774  13.4573

          k = 0.0000-0.2369 0.3756 (  3904 PWs)   bands (ev):

   -73.2326 -42.6312 -41.8571 -41.2837 -11.7465 -10.9569 -10.6387 -10.2836
     1.1264   1.6226   1.8389   2.6986   2.8075   3.6198   3.8336   4.3946
     4.4778   4.6694   5.1708   5.2745   5.5000   6.6016   7.8115   9.3438
    10.1367  12.9747

          k = 0.0000-0.2369-0.1791 (  3896 PWs)   bands (ev):

   -73.2326 -42.6312 -41.8571 -41.2837 -11.6495 -11.1922 -10.5383 -10.2421
     0.9116   1.7643   2.2208   2.7117   2.7564   3.5771   3.7825   3.8328
     4.5485   4.9631   5.2124   5.2500   5.4996   6.5710   7.8438   9.0214
    10.0958  13.2794

          k = 0.2500-0.0601-0.1364 (  3908 PWs)   bands (ev):

   -73.2297 -42.6281 -41.8514 -41.3235 -11.4603 -10.6753 -10.4551 -10.3259
     1.2463   1.5396   2.0015   2.2850   2.5855   2.8540   3.5225   3.8863
     4.0614   4.8038   5.0341   5.2257   5.8806   6.4620   7.6368   9.2309
     9.7194  13.5595

          k = 0.2500-0.0601 0.0485 (  3889 PWs)   bands (ev):

   -73.2297 -42.6281 -41.8514 -41.3235 -11.5506 -10.5320 -10.4635 -10.3564
     1.2704   1.6672   1.8838   2.3124   2.6560   2.6937   3.5106   3.7112
     4.1414   4.7990   5.1633   5.2147   5.8090   6.5764   7.5670   9.2978
     9.6923  13.2209

          k = 0.2500-0.0601-0.5062 (  3915 PWs)   bands (ev):

   -73.2297 -42.6281 -41.8514 -41.3235 -11.3531 -10.6936 -10.5334 -10.3595
     1.1951   1.5582   2.0535   2.3222   2.5066   2.8529   3.7213   3.9585
     4.1794   4.7010   4.8421   5.1917   5.9418   6.4416   7.6246   9.1968
     9.6161  14.3486

          k = 0.2500-0.0601-0.3213 (  3914 PWs)   bands (ev):

   -73.2297 -42.6282 -41.8514 -41.3235 -11.1771 -10.8916 -10.5426 -10.3431
     1.2014   1.5780   1.9106   2.2210   2.5418   3.2911   3.6102   3.9271
     4.1804   4.6644   4.8069   5.2099   5.9468   6.3604   7.6796   9.2624
     9.5438  14.7420

          k = 0.2500 0.0584-0.2318 (  3915 PWs)   bands (ev):

   -73.2297 -42.6281 -41.8514 -41.3235 -11.3565 -10.6907 -10.5309 -10.3609
     1.1922   1.5594   2.0526   2.3201   2.5072   2.8506   3.7210   3.9537
     4.1842   4.7063   4.8434   5.1930   5.9429   6.4405   7.6271   9.1920
     9.6163  14.3410

          k = 0.2500 0.0584-0.0469 (  3893 PWs)   bands (ev):

   -73.2297 -42.6281 -41.8514 -41.3235 -11.5524 -10.5308 -10.4626 -10.3562
     1.2701   1.6663   1.8859   2.3097   2.6555   2.6907   3.5132   3.7044
     4.1486   4.7944   5.1718   5.2149   5.8051   6.5781   7.5672   9.2943
     9.6951  13.2163

          k = 0.2500 0.0584-0.6016 (  3905 PWs)   bands (ev):

   -73.2297 -42.6281 -41.8514 -41.3235 -11.4592 -10.6747 -10.4562 -10.3269
     1.2449   1.5445   2.0002   2.2836   2.5895   2.8511   3.5241   3.8807
     4.0693   4.7962   5.0349   5.2265   5.8804   6.4649   7.6337   9.2299
     9.7198  13.5683

          k = 0.2500 0.0584-0.4167 (  3913 PWs)   bands (ev):

   -73.2297 -42.6282 -41.8514 -41.3235 -11.1755 -10.8919 -10.5425 -10.3449
     1.2015   1.5770   1.9096   2.2181   2.5435   3.2991   3.6147   3.9249
     4.1737   4.6631   4.8104   5.2105   5.9485   6.3594   7.6774   9.2614
     9.5413  14.7506

          k = 0.2500-0.2970 0.0543 (  3919 PWs)   bands (ev):

   -73.2297 -42.6281 -41.8514 -41.3235 -11.2896 -10.7815 -10.5518 -10.3260
     1.3607   1.6848   1.9195   2.3065   2.4990   2.9441   3.4368   3.8761
     4.1805   4.6696   4.8836   5.2757   5.9129   6.4575   7.6513   9.2169
     9.6748  14.3175

          k = 0.2500-0.2970 0.2392 (  3910 PWs)   bands (ev):

   -73.2297 -42.6281 -41.8514 -41.3235 -11.4168 -10.6624 -10.5097 -10.3441
     1.2754   1.7990   2.0303   2.3323   2.5107   2.7731   3.3229   3.7339
     4.2872   4.6888   4.9646   5.2540   5.8933   6.5711   7.5690   9.2861
     9.6180  14.1061

          k = 0.2500-0.2970-0.3155 (  3906 PWs)   bands (ev):

   -73.2297 -42.6281 -41.8514 -41.3235 -11.4154 -10.7353 -10.4744 -10.3013
     1.4472   1.6291   1.8175   2.4117   2.6260   2.8867   3.2376   3.7410
     3.9846   4.8066   5.1082   5.3174   5.8440   6.4751   7.6550   9.2668
     9.7830  13.4729

          k = 0.2500-0.2970-0.1306 (  3915 PWs)   bands (ev):

   -73.2297 -42.6282 -41.8514 -41.3235 -11.2450 -10.9333 -10.4695 -10.2934
     1.3791   1.6273   1.8586   2.3368   2.5928   2.9991   3.2640   3.9301
     4.0480   4.6827   5.0413   5.2885   5.9078   6.3574   7.7158   9.3502
     9.6453  14.2219

          k = 0.2500-0.1785-0.0411 (  3909 PWs)   bands (ev):

   -73.2297 -42.6281 -41.8514 -41.3235 -11.4132 -10.7362 -10.4756 -10.3017
     1.4484   1.6250   1.8125   2.4242   2.6263   2.8832   3.2371   3.7487
     3.9828   4.8113   5.0936   5.3223   5.8491   6.4694   7.6561   9.2707
     9.7769  13.4746

          k = 0.2500-0.1785 0.1438 (  3918 PWs)   bands (ev):

   -73.2297 -42.6281 -41.8514 -41.3235 -11.4142 -10.6655 -10.5097 -10.3441
     1.2737   1.7976   2.0342   2.3375   2.5104   2.7755   3.3180   3.7364
     4.2827   4.6863   4.9681   5.2527   5.8942   6.5693   7.5688   9.2882
     9.6166  14.1167

          k = 0.2500-0.1785-0.4109 (  3919 PWs)   bands (ev):

   -73.2297 -42.6281 -41.8514 -41.3235 -11.2904 -10.7817 -10.5530 -10.3237
     1.3640   1.6879   1.9181   2.3104   2.4923   2.9463   3.4249   3.8802
     4.1813   4.6723   4.8813   5.2741   5.9082   6.4621   7.6503   9.2189
     9.6800  14.3027

          k = 0.2500-0.1785-0.2260 (  3905 PWs)   bands (ev):

   -73.2296 -42.6282 -41.8514 -41.3235 -11.2460 -10.9341 -10.4683 -10.2926
     1.3808   1.6208   1.8669   2.3423   2.5895   2.9924   3.2593   3.9291
     4.0521   4.6798   5.0480   5.2861   5.9056   6.3580   7.7175   9.3510
     9.6483  14.2182

          k =-0.5000 0.1202 0.2728 (  3922 PWs)   bands (ev):

   -73.2272 -42.6251 -41.8457 -41.3629 -10.6429 -10.5650 -10.5424 -10.4498
     0.5534   1.0194   1.7215   2.2006   2.4728   3.3505   3.7647   4.1099
     4.2780   4.4313   4.4987   4.9585   5.6963   6.4078   7.4933   9.4397
     9.7661  14.9199

          k =-0.5000 0.1202 0.4577 (  3917 PWs)   bands (ev):

   -73.2272 -42.6251 -41.8457 -41.3629 -10.6933 -10.6299 -10.5240 -10.3582
     0.7646   1.0578   1.8369   2.2320   2.5346   3.2605   3.5411   3.9470
     4.1165   4.2496   4.6821   4.8626   5.6903   6.5583   7.4715   9.2470
     9.7567  15.4375

          k =-0.5000 0.1202-0.0970 (  3934 PWs)   bands (ev):

   -73.2272 -42.6251 -41.8457 -41.3630 -10.7304 -10.6730 -10.5019 -10.3054
     0.9354   1.2056   2.0274   2.2854   2.5638   2.9745   3.2055   3.8705
     4.0425   4.2544   4.6074   4.8836   5.6779   6.6731   7.4532   9.0524
     9.7768  15.5860

          k =-0.5000 0.2386 0.1775 (  3926 PWs)   bands (ev):

   -73.2272 -42.6251 -41.8457 -41.3629 -10.6415 -10.5670 -10.5418 -10.4497
     0.6141   0.9354   1.7392   2.1395   2.4917   3.4558   3.8384   4.0115
     4.2566   4.4334   4.4972   4.9473   5.6948   6.4108   7.4876   9.4455
     9.7489  15.2800

          k =-0.5000 0.2386 0.3624 (  3920 PWs)   bands (ev):

   -73.2272 -42.6251 -41.8457 -41.3629 -10.6830 -10.6526 -10.5128 -10.3569
     0.7440   1.1046   1.8342   2.1040   2.7096   3.1890   3.5338   3.9208
     4.1069   4.2607   4.7174   4.8626   5.6878   6.5623   7.4708   9.2340
     9.7696  15.2280

          k =-0.5000 0.2386-0.1923 (  3909 PWs)   bands (ev):

   -73.2272 -42.6251 -41.8457 -41.3630 -10.7446 -10.6537 -10.5113 -10.3008
     0.9652   1.1521   2.0690   2.2696   2.6152   2.9032   3.2699   3.8485
     3.9623   4.2682   4.6033   4.9212   5.6830   6.6809   7.4518   9.0569
     9.7691  15.5805

          k =-0.5000 0.2386-0.0074 (  3921 PWs)   bands (ev):

   -73.2272 -42.6251 -41.8457 -41.3629 -10.6812 -10.6482 -10.5165 -10.3594
     0.7407   1.1101   1.8278   2.1008   2.7072   3.1905   3.5333   3.9370
     4.1097   4.2609   4.7144   4.8614   5.6884   6.5567   7.4691   9.2392
     9.7685  15.2183

          k =-0.5000-0.1167 0.4635 (  3922 PWs)   bands (ev):

   -73.2272 -42.6251 -41.8457 -41.3629 -10.6399 -10.5646 -10.5474 -10.4479
     0.5544   1.0251   1.7203   2.1791   2.4596   3.3467   3.8007   4.1164
     4.2858   4.4367   4.4902   4.9566   5.6965   6.4020   7.4887   9.4374
     9.7657  14.9160

          k =-0.5000-0.1167 0.6484 (  3914 PWs)   bands (ev):

   -73.2272 -42.6251 -41.8457 -41.3629 -10.6942 -10.6339 -10.5224 -10.3547
     0.7694   1.0576   1.8364   2.2263   2.5177   3.2654   3.5413   3.9592
     4.1142   4.2555   4.6823   4.8646   5.6897   6.5582   7.4696   9.2426
     9.7573  15.4548

          k =-0.5000-0.1167 0.0937 (  3922 PWs)   bands (ev):

   -73.2272 -42.6251 -41.8457 -41.3630 -10.7335 -10.6778 -10.4980 -10.3010
     0.9448   1.2028   2.0309   2.2775   2.5456   2.9819   3.2052   3.8649
     4.0484   4.2588   4.6091   4.8867   5.6766   6.6785   7.4522   9.0409
     9.7782  15.5934

     the Fermi energy is     6.5413 ev

!    total energy              =    -520.61100831 Ry
     total all-electron energy =     -3720.864267 Ry
     estimated scf accuracy    <       0.00000084 Ry
     smearing contrib. (-TS)   =      -0.00435139 Ry
     internal energy E=F+TS    =    -520.60665692 Ry

     The total energy is F=E-TS. E is the sum of the following terms:
     one-electron contribution =    -242.62025118 Ry
     hartree contribution      =     145.95692646 Ry
     xc contribution           =     -61.16013061 Ry
     ewald contribution        =    -184.28935869 Ry
     Hubbard energy            =       0.24076725 Ry
     one-center paw contrib.   =    -178.73461014 Ry

     convergence has been achieved in  27 iterations
     force_hub    :     14.67s CPU      2.07s WALL (       1 calls)
     dndtau       :     13.23s CPU      1.83s WALL (     756 calls)
     dprojdtau    :      1.94s CPU      0.28s WALL (     756 calls)
     calc_doverla :      6.97s CPU      1.00s WALL (     756 calls)
     matel_dSdtau :      9.58s CPU      1.33s WALL (    1512 calls)

     Forces acting on atoms (cartesian axes, Ry/au):

     atom    1 type  1   force =     0.00167256   -0.01530930   -0.00889637
     atom    2 type  1   force =    -0.00054730    0.00832065   -0.00949726
     atom    3 type  3   force =    -0.00113651   -0.04410512   -0.00980171
     atom    4 type  2   force =    -0.00099501    0.03618354    0.02216676
     atom    5 type  2   force =     0.00090878   -0.00962736   -0.00446469
     atom    6 type  2   force =     0.00098571    0.01186877    0.01087453
     atom    7 type  2   force =    -0.00088822    0.01266882   -0.00038125

     Total force =     0.069680     Total SCF correction =     0.000955


     Computing stress (Cartesian axis) and pressure

     stres_hub    :     42.27s CPU      5.28s WALL (       1 calls)
     dprojdepsilo :     34.16s CPU      4.30s WALL (     324 calls)
     dprojdeps1   :      3.22s CPU      0.49s WALL (     324 calls)
     dprojdeps2   :     19.20s CPU      2.38s WALL (     324 calls)
     dprojdeps3   :     11.73s CPU      1.43s WALL (     324 calls)
          total   stress  (Ry/bohr**3)                   (kbar)     P=      -40.75
  -0.00006182   0.00000251  -0.00000095           -9.09        0.37       -0.14
   0.00000251  -0.00044513  -0.00016382            0.37      -65.48      -24.10
  -0.00000095  -0.00016382  -0.00032407           -0.14      -24.10      -47.67


     BFGS Geometry Optimization
     Energy error            =      9.4E-03 Ry
     Gradient error          =      4.4E-02 Ry/Bohr
     Cell gradient error     =      6.5E+01 kbar

     number of scf cycles    =   1
     number of bfgs steps    =   0

     enthalpy           new  =    -520.6110083107 Ry

     new trust radius        =       0.0529286604 bohr
     new conv_thr            =       0.0000010000 Ry

     new unit-cell volume =    487.77793 a.u.^3 (    72.28123 Ang^3 )
     density =      3.84904 g/cm^3

CELL_PARAMETERS (angstrom)
   2.952652317   0.000185346  -0.000069893
   1.498237559   6.172489576  -0.025599296
   2.951042222   3.166927168   3.952876494

ATOMIC_POSITIONS (angstrom)
Mg               3.4186552686        4.8234200175        1.5023233084
Mg               3.4265176014        1.0657092575        0.3850348770
Mn               4.9026650098        2.3384136676        2.5199360328
O                3.4497812239        6.8688311416        1.7517461919
O                4.8982853431        4.2913472664        2.8820547891
O                3.4248660250        2.7970672642        1.3637964580
O                4.9247704065        8.3445414064        3.8524290186



     Writing config-only to output data dir .\out\\qgan.save\ :
     XML data file
     NEW-OLD atomic charge density approx. for the potential
     New effective cutoffs (rho, wfc):  493.33   61.69

     Check: negative core charge=   -0.000002

     Atomic wfc used for Hubbard projectors are orthogonalized


     total cpu time spent up to now is      110.6 secs

     Self-consistent Calculation

     iteration #  1     ecut=    60.00 Ry     beta= 0.70
     Davidson diagonalization with overlap
     ethr =  1.00E-06,  avg # of iterations = 13.3

     =================== HUBBARD OCCUPATIONS ===================
     ------------------------ ATOM    3 ------------------------
     Tr[ns(  3)] =   5.28862
     eigenvalues:
       0.214  0.323  0.407  0.726  0.974
     eigenvectors (columns):
       0.557 -0.000 -0.201 -0.004  0.806
      -0.000 -0.956 -0.006  0.292 -0.000
      -0.796  0.004 -0.407  0.003  0.449
       0.237  0.006 -0.891  0.002 -0.387
      -0.004 -0.292 -0.004 -0.956 -0.002
     occupation matrix ns (before diag.):
       0.715 -0.000  0.290 -0.202  0.000
      -0.000  0.358  0.001  0.001 -0.112
       0.290  0.001  0.399 -0.062 -0.002
      -0.202  0.001 -0.062  0.481  0.000
       0.000 -0.112 -0.002  0.000  0.691

     Number of occupied Hubbard levels =    5.2886

     total cpu time spent up to now is      117.6 secs

     total energy              =    -520.61042472 Ry
     estimated scf accuracy    <       0.00909227 Ry

     iteration #  2     ecut=    60.00 Ry     beta= 0.70
     Davidson diagonalization with overlap
     ethr =  2.11E-05,  avg # of iterations =  4.8

     total cpu time spent up to now is      120.6 secs

     total energy              =    -520.60369362 Ry
     estimated scf accuracy    <       0.15036454 Ry

     iteration #  3     ecut=    60.00 Ry     beta= 0.70
     Davidson diagonalization with overlap
     ethr =  2.11E-05,  avg # of iterations =  3.7

     total cpu time spent up to now is      123.2 secs

     total energy              =    -520.61577984 Ry
     estimated scf accuracy    <       0.00389923 Ry

     iteration #  4     ecut=    60.00 Ry     beta= 0.70
     Davidson diagonalization with overlap
     ethr =  9.07E-06,  avg # of iterations =  2.1

     total cpu time spent up to now is      125.6 secs

     total energy              =    -520.61666061 Ry
     estimated scf accuracy    <       0.00120153 Ry

     iteration #  5     ecut=    60.00 Ry     beta= 0.70
     Davidson diagonalization with overlap
     ethr =  2.79E-06,  avg # of iterations =  2.4

     total cpu time spent up to now is      128.1 secs

     total energy              =    -520.61684455 Ry
     estimated scf accuracy    <       0.00009902 Ry

     iteration #  6     ecut=    60.00 Ry     beta= 0.70
     Davidson diagonalization with overlap
     ethr =  2.30E-07,  avg # of iterations = 10.9

     total cpu time spent up to now is      131.8 secs

     total energy              =    -520.61693370 Ry
     estimated scf accuracy    <       0.00010948 Ry

     iteration #  7     ecut=    60.00 Ry     beta= 0.70
     Davidson diagonalization with overlap
     ethr =  2.30E-07,  avg # of iterations =  1.2

     total cpu time spent up to now is      133.9 secs

     total energy              =    -520.61694143 Ry
     estimated scf accuracy    <       0.00001696 Ry

     iteration #  8     ecut=    60.00 Ry     beta= 0.70
     Davidson diagonalization with overlap
     ethr =  3.94E-08,  avg # of iterations =  9.5

     total cpu time spent up to now is      137.5 secs

     total energy              =    -520.61695756 Ry
     estimated scf accuracy    <       0.00002395 Ry

     iteration #  9     ecut=    60.00 Ry     beta= 0.70
     Davidson diagonalization with overlap
     ethr =  3.94E-08,  avg # of iterations =  1.3

     total cpu time spent up to now is      139.7 secs

     total energy              =    -520.61695643 Ry
     estimated scf accuracy    <       0.00001177 Ry

     iteration # 10     ecut=    60.00 Ry     beta= 0.70
     Davidson diagonalization with overlap
     ethr =  2.74E-08,  avg # of iterations =  2.2

     total cpu time spent up to now is      142.0 secs

     total energy              =    -520.61695759 Ry
     estimated scf accuracy    <       0.00000205 Ry

     iteration # 11     ecut=    60.00 Ry     beta= 0.70
     Davidson diagonalization with overlap
     ethr =  4.77E-09,  avg # of iterations = 10.5

     total cpu time spent up to now is      145.9 secs

     End of self-consistent calculation

     =================== HUBBARD OCCUPATIONS ===================
     ------------------------ ATOM    3 ------------------------
     Tr[ns(  3)] =   5.22582
     eigenvalues:
       0.208  0.319  0.400  0.713  0.973
     eigenvectors (columns):
       0.555 -0.000  0.206 -0.002  0.806
       0.000  0.957  0.004  0.292 -0.000
      -0.797 -0.002  0.408  0.003  0.445
       0.238 -0.005  0.889  0.002 -0.391
      -0.003  0.292  0.004 -0.957 -0.001
     occupation matrix ns (before diag.):
       0.713 -0.000  0.291 -0.206  0.000
      -0.000  0.353  0.000  0.001 -0.110
       0.291  0.000  0.391 -0.063 -0.001
      -0.206  0.001 -0.063  0.477 -0.000
       0.000 -0.110 -0.001 -0.000  0.679

     Number of occupied Hubbard levels =    5.2258

          k = 0.0000 0.0000 0.0000 (  3893 PWs)   bands (ev):

   -72.9317 -42.3490 -41.5667 -40.9785 -11.9045 -10.5408 -10.2897 -10.1181
     0.7660   1.5049   2.1960   2.6284   3.0038   3.9559   4.1808   4.3953
     4.6457   5.3771   5.6130   5.6959   6.0574   6.9766   7.9832  10.0052
    10.4157  11.7248

          k = 0.0000 0.0008 0.1864 (  3890 PWs)   bands (ev):

   -72.9317 -42.3491 -41.5667 -40.9785 -11.7096 -10.7064 -10.3659 -10.1380
     0.9635   1.7622   2.0104   3.0092   3.0141   3.9092   4.0703   4.5128
     4.5881   4.9563   5.5148   5.6082   5.7915   6.9380   8.0862   9.7265
    10.4639  12.8355

          k =-0.0000-0.0015-0.3728 (  3892 PWs)   bands (ev):

   -72.9316 -42.3491 -41.5667 -40.9785 -11.3810 -10.9931 -10.4404 -10.1737
     1.2343   1.7917   2.5191   3.0179   3.0200   3.4785   3.8942   4.5276
     4.6109   4.7818   5.4516   5.5148   5.6718   6.8986   8.1485   9.5148
    10.5125  14.4584

          k =-0.0000 0.1194-0.0956 (  3887 PWs)   bands (ev):

   -72.9317 -42.3490 -41.5667 -40.9785 -11.8021 -10.5841 -10.4056 -10.1026
     1.0024   1.4952   2.1642   2.7580   3.0391   3.9739   4.1399   4.3456
     4.6911   5.0334   5.4595   5.6425   6.0548   7.0023   7.9925  10.0663
    10.4609  12.5132

          k =-0.0000 0.1202 0.0908 (  3903 PWs)   bands (ev):

   -72.9317 -42.3491 -41.5667 -40.9785 -11.7512 -10.7904 -10.2709 -10.0815
     0.9018   1.8223   2.0494   2.8312   2.9779   3.8300   3.9494   4.5160
     4.6490   5.2048   5.5431   5.5933   5.8735   6.9752   8.0820   9.7210
    10.4177  12.4759

          k =-0.0000 0.1178-0.4685 (  3919 PWs)   bands (ev):

   -72.9316 -42.3491 -41.5667 -40.9785 -11.4278 -11.0715 -10.3522 -10.1099
     1.2617   1.6260   2.4560   2.9844   3.0992   3.5140   3.9243   4.3069
     4.6271   5.0493   5.4398   5.4949   5.7155   6.9349   8.1794   9.4940
    10.4665  13.8162

          k =-0.0000 0.1186-0.2820 (  3898 PWs)   bands (ev):

   -72.9316 -42.3491 -41.5667 -40.9785 -11.5608 -10.7965 -10.4787 -10.1258
     1.2087   1.7646   2.1882   2.9617   3.0476   3.8223   3.9227   4.4706
     4.4974   4.8999   5.4168   5.5502   5.7803   6.9665   8.1095   9.8079
    10.5089  14.0766

          k = 0.0000-0.2388 0.1913 (  3906 PWs)   bands (ev):

   -72.9316 -42.3490 -41.5667 -40.9785 -11.6724 -10.6988 -10.4730 -10.0905
     1.0100   1.7963   2.3579   2.8217   3.0768   3.6110   3.9937   4.2931
     4.5690   5.0234   5.4362   5.5888   6.0596   7.0278   7.9946  10.1331
    10.5056  13.8125

          k = 0.0000-0.2380 0.3777 (  3904 PWs)   bands (ev):

   -72.9316 -42.3491 -41.5667 -40.9785 -11.6149 -10.8653 -10.3820 -10.0742
     1.2979   1.7530   1.9565   2.8815   3.0098   3.7802   3.9671   4.4735
     4.7441   4.8980   5.4248   5.5359   5.8104   7.0019   8.1182   9.8045
    10.4629  13.3918

          k = 0.0000-0.2403-0.1815 (  3896 PWs)   bands (ev):

   -72.9317 -42.3491 -41.5667 -40.9785 -11.4666 -11.1420 -10.2652 -10.0606
     1.1095   1.8008   2.3342   2.9519   2.9727   3.7085   3.9557   4.0588
     4.6362   5.2078   5.4818   5.5313   5.7801   6.9693   8.1563   9.4620
    10.4202  13.6954

          k = 0.2504-0.0613-0.1378 (  3908 PWs)   bands (ev):

   -72.9286 -42.3459 -41.5608 -41.0195 -11.3373 -10.5703 -10.2227 -10.0934
     1.3803   1.6591   2.1219   2.4208   2.7735   3.0430   3.7696   4.0308
     4.2539   5.0114   5.2996   5.4761   6.1480   6.8661   7.9699   9.6687
    10.0952  13.9249

          k = 0.2504-0.0606 0.0486 (  3889 PWs)   bands (ev):

   -72.9286 -42.3459 -41.5608 -41.0195 -11.4360 -10.4351 -10.2674 -10.0693
     1.4034   1.7952   2.0282   2.4419   2.8314   2.8695   3.6968   3.9402
     4.3010   5.0161   5.3831   5.5174   6.0771   6.9739   7.8951   9.7360
    10.0671  13.5877

          k = 0.2504-0.0629-0.5106 (  3915 PWs)   bands (ev):

   -72.9287 -42.3459 -41.5608 -41.0195 -11.2417 -10.5457 -10.3480 -10.1129
     1.3190   1.6673   2.1819   2.5157   2.7015   3.0154   3.9549   4.0861
     4.3752   4.9550   5.0551   5.4432   6.2031   6.8570   7.9603   9.6229
    10.0032  14.7001

          k = 0.2504-0.0621-0.3242 (  3914 PWs)   bands (ev):

   -72.9287 -42.3459 -41.5608 -41.0195 -11.0542 -10.7661 -10.3059 -10.1389
     1.3171   1.6625   2.0637   2.4123   2.7652   3.3903   3.8450   4.1436
     4.3595   4.8952   5.0206   5.4469   6.2170   6.7732   8.0241   9.7425
     9.8745  15.0706

          k = 0.2504 0.0580-0.2334 (  3915 PWs)   bands (ev):

   -72.9287 -42.3459 -41.5608 -41.0195 -11.2450 -10.5435 -10.3456 -10.1135
     1.3162   1.6682   2.1815   2.5135   2.7016   3.0128   3.9533   4.0830
     4.3811   4.9623   5.0517   5.4456   6.2043   6.8559   7.9624   9.6191
    10.0035  14.6922

          k = 0.2504 0.0588-0.0470 (  3893 PWs)   bands (ev):

   -72.9286 -42.3459 -41.5608 -41.0195 -11.4379 -10.4349 -10.2653 -10.0691
     1.4032   1.7940   2.0300   2.4393   2.8218   2.8765   3.6967   3.9350
     4.3090   5.0087   5.3955   5.5165   6.0734   6.9749   7.8952   9.7339
    10.0690  13.5829

          k = 0.2504 0.0565-0.6062 (  3905 PWs)   bands (ev):

   -72.9286 -42.3459 -41.5608 -41.0195 -11.3364 -10.5693 -10.2243 -10.0941
     1.3787   1.6632   2.1213   2.4195   2.7791   3.0387   3.7707   4.0281
     4.2594   5.0059   5.2980   5.4766   6.1490   6.8688   7.9673   9.6673
    10.0951  13.9342

          k = 0.2504 0.0573-0.4198 (  3913 PWs)   bands (ev):

   -72.9287 -42.3459 -41.5608 -41.0195 -11.0535 -10.7647 -10.3071 -10.1401
     1.3166   1.6620   2.0622   2.4102   2.7674   3.3978   3.8482   4.1416
     4.3544   4.8918   5.0249   5.4476   6.2181   6.7734   8.0219   9.7412
     9.8721  15.0776

          k = 0.2504-0.3001 0.0535 (  3919 PWs)   bands (ev):

   -72.9287 -42.3459 -41.5608 -41.0195 -11.1719 -10.6499 -10.3429 -10.0944
     1.4840   1.8041   2.0747   2.4558   2.6971   3.1146   3.6502   4.0276
     4.3635   4.9316   5.1051   5.5141   6.1843   6.8677   7.9844   9.6269
    10.0787  14.6739

          k = 0.2504-0.2993 0.2399 (  3910 PWs)   bands (ev):

   -72.9287 -42.3459 -41.5608 -41.0195 -11.3074 -10.4854 -10.3784 -10.0700
     1.4016   1.9187   2.2152   2.5031   2.6864   2.8970   3.5113   3.9204
     4.4831   4.9534   5.1360   5.5441   6.1547   6.9827   7.8922   9.6886
    10.0302  14.4672

          k = 0.2504-0.3017-0.3193 (  3906 PWs)   bands (ev):

   -72.9286 -42.3459 -41.5608 -41.0195 -11.2850 -10.6383 -10.2332 -10.0782
     1.6070   1.7606   1.9109   2.5510   2.7923   3.0680   3.5035   3.8967
     4.1533   5.0532   5.3539   5.5546   6.1216   6.8750   7.9865   9.6897
    10.1726  13.8440

          k = 0.2504-0.3009-0.1329 (  3915 PWs)   bands (ev):

   -72.9286 -42.3459 -41.5608 -41.0195 -11.0722 -10.8680 -10.2127 -10.0986
     1.5444   1.7277   1.9393   2.5182   2.7898   3.1341   3.4975   4.1424
     4.2461   4.8689   5.3108   5.5171   6.1792   6.7683   8.0513   9.8306
     9.9750  14.5840

          k = 0.2504-0.1807-0.0421 (  3909 PWs)   bands (ev):

   -72.9286 -42.3459 -41.5608 -41.0195 -11.2827 -10.6392 -10.2353 -10.0781
     1.6056   1.7596   1.9070   2.5616   2.7937   3.0629   3.5037   3.9031
     4.1525   5.0584   5.3386   5.5600   6.1248   6.8714   7.9870   9.6921
    10.1681  13.8452

          k = 0.2504-0.1800 0.1443 (  3918 PWs)   bands (ev):

   -72.9287 -42.3459 -41.5608 -41.0195 -11.3048 -10.4874 -10.3796 -10.0701
     1.3998   1.9182   2.2187   2.5082   2.6899   2.8940   3.5086   3.9224
     4.4791   4.9495   5.1398   5.5432   6.1551   6.9816   7.8920   9.6890
    10.0302  14.4777

          k = 0.2504-0.1823-0.4150 (  3919 PWs)   bands (ev):

   -72.9287 -42.3459 -41.5608 -41.0195 -11.1723 -10.6519 -10.3416 -10.0931
     1.4873   1.8079   2.0729   2.4597   2.6876   3.1184   3.6398   4.0308
     4.3641   4.9355   5.1039   5.5115   6.1808   6.8702   7.9839   9.6297
    10.0827  14.6604

          k = 0.2504-0.1815-0.2285 (  3905 PWs)   bands (ev):

   -72.9286 -42.3459 -41.5608 -41.0195 -11.0725 -10.8695 -10.2108 -10.0983
     1.5467   1.7227   1.9450   2.5227   2.7849   3.1309   3.4921   4.1428
     4.2486   4.8661   5.3183   5.5142   6.1773   6.7678   8.0531   9.8312
     9.9784  14.5809

          k =-0.5008 0.1227 0.2756 (  3922 PWs)   bands (ev):

   -72.9261 -42.3428 -41.5549 -41.0602 -10.6106 -10.4213 -10.3123 -10.1635
     0.6785   1.2013   1.8474   2.2911   2.5981   3.5421   3.8930   4.2892
     4.4951   4.7414   4.7618   5.2342   5.9679   6.7549   7.8487   9.9318
    10.1051  15.2820

          k =-0.5008 0.1235 0.4620 (  3917 PWs)   bands (ev):

   -72.9261 -42.3427 -41.5549 -41.0602 -10.6643 -10.4406 -10.2945 -10.1142
     0.8884   1.2465   1.9554   2.3645   2.6244   3.4512   3.6807   4.1877
     4.3690   4.5089   4.8925   5.1085   5.9636   6.9184   7.8276   9.7356
    10.0825  15.7954

          k =-0.5008 0.1212-0.0973 (  3934 PWs)   bands (ev):

   -72.9261 -42.3427 -41.5549 -41.0602 -10.7071 -10.4628 -10.2756 -10.0738
     1.0792   1.3655   2.1715   2.4207   2.6744   3.1078   3.3906   4.1257
     4.2867   4.5265   4.8225   5.0576   5.9541   7.0430   7.8107   9.5260
    10.1024  15.9426

          k =-0.5008 0.2421 0.1799 (  3926 PWs)   bands (ev):

   -72.9261 -42.3428 -41.5549 -41.0602 -10.6106 -10.4206 -10.3133 -10.1632
     0.7354   1.1177   1.8524   2.2766   2.5820   3.6798   3.9116   4.2191
     4.4705   4.7243   4.7784   5.2266   5.9667   6.7582   7.8418   9.9468
    10.0791  15.6430

          k =-0.5008 0.2428 0.3663 (  3920 PWs)   bands (ev):

   -72.9261 -42.3427 -41.5549 -41.0602 -10.6654 -10.4463 -10.2883 -10.1134
     0.8787   1.2788   1.9570   2.2241   2.8126   3.3626   3.6856   4.1637
     4.3698   4.5174   4.9186   5.1095   5.9616   6.9234   7.8270   9.7195
    10.0983  15.5879

          k =-0.5008 0.2405-0.1929 (  3909 PWs)   bands (ev):

   -72.9261 -42.3427 -41.5549 -41.0602 -10.7107 -10.4580 -10.2801 -10.0703
     1.1007   1.3273   2.1567   2.4684   2.7196   3.0332   3.4460   4.0949
     4.2298   4.5257   4.8114   5.1078   5.9583   7.0502   7.8100   9.5322
    10.0930  15.9306

          k =-0.5008 0.2413-0.0065 (  3921 PWs)   bands (ev):

   -72.9261 -42.3427 -41.5549 -41.0602 -10.6636 -10.4425 -10.2931 -10.1143
     0.8757   1.2827   1.9497   2.2239   2.8096   3.3657   3.6847   4.1779
     4.3736   4.5159   4.9181   5.1067   5.9622   6.9193   7.8248   9.7244
    10.0973  15.5758

          k =-0.5008-0.1161 0.4668 (  3922 PWs)   bands (ev):

   -72.9261 -42.3428 -41.5549 -41.0602 -10.6109 -10.4177 -10.3172 -10.1617
     0.6804   1.2048   1.8444   2.2746   2.5846   3.5412   3.9185   4.3003
     4.5018   4.7492   4.7530   5.2314   5.9683   6.7513   7.8436   9.9290
    10.1052  15.2746

          k =-0.5008-0.1153 0.6532 (  3914 PWs)   bands (ev):

   -72.9261 -42.3427 -41.5549 -41.0602 -10.6662 -10.4421 -10.2932 -10.1117
     0.8939   1.2452   1.9531   2.3592   2.6123   3.4542   3.6808   4.2010
     4.3622   4.5172   4.8928   5.1096   5.9632   6.9187   7.8258   9.7313
    10.0830  15.8129

          k =-0.5008-0.1176 0.0940 (  3922 PWs)   bands (ev):

   -72.9261 -42.3427 -41.5549 -41.0602 -10.7103 -10.4669 -10.2708 -10.0708
     1.0900   1.3622   2.1710   2.4128   2.6633   3.1088   3.3948   4.1205
     4.2914   4.5261   4.8292   5.0586   5.9531   7.0475   7.8103   9.5150
    10.1039  15.9517

     the Fermi energy is     6.9391 ev

!    total energy              =    -520.61696011 Ry
     total all-electron energy =     -3720.870219 Ry
     estimated scf accuracy    <       0.00000010 Ry
     smearing contrib. (-TS)   =      -0.00507889 Ry
     internal energy E=F+TS    =    -520.61188122 Ry

     The total energy is F=E-TS. E is the sum of the following terms:
     one-electron contribution =    -241.62623381 Ry
     hartree contribution      =     145.85906571 Ry
     xc contribution           =     -61.25152571 Ry
     ewald contribution        =    -185.09445437 Ry
     Hubbard energy            =       0.24441853 Ry
     one-center paw contrib.   =    -178.74315156 Ry

     convergence has been achieved in  11 iterations
     force_hub    :     30.27s CPU      4.26s WALL (       2 calls)
     dndtau       :     27.02s CPU      3.78s WALL (    1512 calls)
     dprojdtau    :      3.91s CPU      0.59s WALL (    1512 calls)
     calc_doverla :     15.22s CPU      2.10s WALL (    1512 calls)
     matel_dSdtau :     19.84s CPU      2.72s WALL (    3024 calls)

     Forces acting on atoms (cartesian axes, Ry/au):

     atom    1 type  1   force =     0.00165289   -0.01326233   -0.00885045
     atom    2 type  1   force =    -0.00053301    0.00697444   -0.01615577
     atom    3 type  3   force =    -0.00071342   -0.01524095    0.00588376
     atom    4 type  2   force =    -0.00083467    0.00933401    0.01408290
     atom    5 type  2   force =     0.00075227    0.00079800    0.00004469
     atom    6 type  2   force =     0.00063358    0.00519575   -0.00165071
     atom    7 type  2   force =    -0.00095763    0.00620108    0.00664558

     Total force =     0.035147     Total SCF correction =     0.000450


     Computing stress (Cartesian axis) and pressure

     stres_hub    :     83.06s CPU     10.87s WALL (       2 calls)
     dprojdepsilo :     67.91s CPU      8.89s WALL (     648 calls)
     dprojdeps1   :      7.61s CPU      1.00s WALL (     648 calls)
     dprojdeps2   :     38.34s CPU      4.99s WALL (     648 calls)
     dprojdeps3   :     21.95s CPU      2.90s WALL (     648 calls)
          total   stress  (Ry/bohr**3)                   (kbar)     P=        0.37
   0.00010084  -0.00000047   0.00000138           14.83       -0.07        0.20
  -0.00000047  -0.00003830  -0.00004002           -0.07       -5.63       -5.89
   0.00000138  -0.00004002  -0.00005504            0.20       -5.89       -8.10

     Energy error            =      6.0E-03 Ry
     Gradient error          =      1.6E-02 Ry/Bohr
     Cell gradient error     =      1.5E+01 kbar

     number of scf cycles    =   2
     number of bfgs steps    =   1

     enthalpy           old  =    -520.6110083107 Ry
     enthalpy           new  =    -520.6169601116 Ry

     CASE: enthalpy          _new < enthalpy          _old

     new trust radius        =       0.0282302756 bohr
     new conv_thr            =       0.0000001616 Ry

     new unit-cell volume =    486.23263 a.u.^3 (    72.05224 Ang^3 )
     density =      3.86127 g/cm^3

CELL_PARAMETERS (angstrom)
   2.961725238   0.000169219   0.000053392
   1.502804741   6.153502660  -0.037924368
   2.960259398   3.149213562   3.934173881

ATOMIC_POSITIONS (angstrom)
Mg               3.4305073239        4.7951494984        1.4812088336
Mg               3.4366335669        1.0672618487        0.3697375445
Mn               4.9172203420        2.3118999487        2.5109040195
O                3.4597419117        6.8534525856        1.7440553460
O                4.9140439519        4.2720632664        2.8641891586
O                3.4359642105        2.7902676142        1.3537125700
O                4.9392653376        8.3163428862        3.8282054319



     Writing config-only to output data dir .\out\\qgan.save\ :
     XML data file
     NEW-OLD atomic charge density approx. for the potential
     New effective cutoffs (rho, wfc):  498.07   62.29

     Check: negative core charge=   -0.000002

     Atomic wfc used for Hubbard projectors are orthogonalized


     total cpu time spent up to now is      156.7 secs

     Self-consistent Calculation

     iteration #  1     ecut=    60.00 Ry     beta= 0.70
     Davidson diagonalization with overlap
     ethr =  1.00E-06,  avg # of iterations = 11.8

     =================== HUBBARD OCCUPATIONS ===================
     ------------------------ ATOM    3 ------------------------
     Tr[ns(  3)] =   5.26004
     eigenvalues:
       0.218  0.318  0.403  0.717  0.974
     eigenvectors (columns):
       0.556  0.000  0.204 -0.001  0.806
      -0.000  0.957  0.003  0.290 -0.000
      -0.794 -0.002  0.417  0.002  0.442
       0.246 -0.003  0.886  0.002 -0.394
      -0.002  0.290  0.003 -0.957 -0.001
     occupation matrix ns (before diag.):
       0.716 -0.000  0.285 -0.206  0.000
      -0.000  0.352  0.000  0.000 -0.111
       0.285  0.000  0.398 -0.064 -0.001
      -0.206  0.000 -0.064  0.480 -0.000
       0.000 -0.111 -0.001 -0.000  0.683

     Number of occupied Hubbard levels =    5.2600

     total cpu time spent up to now is      163.0 secs

     total energy              =    -520.61672445 Ry
     estimated scf accuracy    <       0.00281402 Ry

     iteration #  2     ecut=    60.00 Ry     beta= 0.70
     Davidson diagonalization with overlap
     ethr =  6.54E-06,  avg # of iterations =  4.5

     total cpu time spent up to now is      165.8 secs

     total energy              =    -520.61452986 Ry
     estimated scf accuracy    <       0.03624080 Ry

     iteration #  3     ecut=    60.00 Ry     beta= 0.70
     Davidson diagonalization with overlap
     ethr =  6.54E-06,  avg # of iterations =  3.4

     total cpu time spent up to now is      168.5 secs

     total energy              =    -520.61790098 Ry
     estimated scf accuracy    <       0.00199209 Ry

     iteration #  4     ecut=    60.00 Ry     beta= 0.70
     Davidson diagonalization with overlap
     ethr =  4.63E-06,  avg # of iterations =  1.9

     total cpu time spent up to now is      170.8 secs

     total energy              =    -520.61829981 Ry
     estimated scf accuracy    <       0.00020136 Ry

     iteration #  5     ecut=    60.00 Ry     beta= 0.70
     Davidson diagonalization with overlap
     ethr =  4.68E-07,  avg # of iterations =  4.6

     total cpu time spent up to now is      173.5 secs

     total energy              =    -520.61837954 Ry
     estimated scf accuracy    <       0.00013352 Ry

     iteration #  6     ecut=    60.00 Ry     beta= 0.70
     Davidson diagonalization with overlap
     ethr =  3.11E-07,  avg # of iterations =  1.7

     total cpu time spent up to now is      175.7 secs

     total energy              =    -520.61838230 Ry
     estimated scf accuracy    <       0.00004991 Ry

     iteration #  7     ecut=    60.00 Ry     beta= 0.70
     Davidson diagonalization with overlap
     ethr =  1.16E-07,  avg # of iterations =  2.1

     total cpu time spent up to now is      178.0 secs

     total energy              =    -520.61838949 Ry
     estimated scf accuracy    <       0.00000469 Ry

     iteration #  8     ecut=    60.00 Ry     beta= 0.70
     Davidson diagonalization with overlap
     ethr =  1.09E-08,  avg # of iterations =  8.1

     total cpu time spent up to now is      182.0 secs

     total energy              =    -520.61839526 Ry
     estimated scf accuracy    <       0.00000585 Ry

     iteration #  9     ecut=    60.00 Ry     beta= 0.70
     Davidson diagonalization with overlap
     ethr =  1.09E-08,  avg # of iterations =  1.6

     total cpu time spent up to now is      184.2 secs

     total energy              =    -520.61839534 Ry
     estimated scf accuracy    <       0.00000182 Ry

     iteration # 10     ecut=    60.00 Ry     beta= 0.70
     Davidson diagonalization with overlap
     ethr =  4.23E-09,  avg # of iterations =  6.4

     total cpu time spent up to now is      187.2 secs

     total energy              =    -520.61839696 Ry
     estimated scf accuracy    <       0.00000061 Ry

     iteration # 11     ecut=    60.00 Ry     beta= 0.70
     Davidson diagonalization with overlap
     ethr =  1.43E-09,  avg # of iterations =  9.0

     total cpu time spent up to now is      190.7 secs

     total energy              =    -520.61839777 Ry
     estimated scf accuracy    <       0.00000053 Ry

     iteration # 12     ecut=    60.00 Ry     beta= 0.70
     Davidson diagonalization with overlap
     ethr =  1.23E-09,  avg # of iterations =  1.6

     total cpu time spent up to now is      192.8 secs

     total energy              =    -520.61839620 Ry
     estimated scf accuracy    <       0.00000035 Ry

     iteration # 13     ecut=    60.00 Ry     beta= 0.70
     Davidson diagonalization with overlap
     ethr =  8.19E-10,  avg # of iterations =  5.5

     total cpu time spent up to now is      195.9 secs

     total energy              =    -520.61839856 Ry
     estimated scf accuracy    <       0.00000059 Ry

     iteration # 14     ecut=    60.00 Ry     beta= 0.70
     Davidson diagonalization with overlap
     ethr =  8.19E-10,  avg # of iterations =  2.2

     total cpu time spent up to now is      198.3 secs

     total energy              =    -520.61839895 Ry
     estimated scf accuracy    <       0.00000032 Ry

     iteration # 15     ecut=    60.00 Ry     beta= 0.70
     Davidson diagonalization with overlap
     ethr =  7.48E-10,  avg # of iterations =  2.3

     total cpu time spent up to now is      200.7 secs

     End of self-consistent calculation

     =================== HUBBARD OCCUPATIONS ===================
     ------------------------ ATOM    3 ------------------------
     Tr[ns(  3)] =   5.23059
     eigenvalues:
       0.215  0.317  0.400  0.711  0.973
     eigenvectors (columns):
       0.546  0.001  0.205  0.000  0.813
      -0.001  0.959  0.001  0.283 -0.000
      -0.799 -0.001  0.418  0.000  0.431
       0.251 -0.001  0.885  0.002 -0.392
       0.000  0.283  0.002 -0.959 -0.001
     occupation matrix ns (before diag.):
       0.723  0.000  0.282 -0.208 -0.000
       0.000  0.348 -0.000  0.000 -0.107
       0.282 -0.000  0.388 -0.060 -0.000
      -0.208  0.000 -0.060  0.476 -0.000
      -0.000 -0.107 -0.000 -0.000  0.679

     Number of occupied Hubbard levels =    5.2306

          k = 0.0000 0.0000 0.0000 (  3893 PWs)   bands (ev):

   -72.8708 -42.2979 -41.5138 -40.9105 -11.8906 -10.5732 -10.2352 -10.0183
     0.8042   1.5129   2.1961   2.6817   3.0749   3.9129   4.2143   4.3679
     4.6572   5.4604   5.6377   5.7358   6.1276   7.0964   8.0430  10.1145
    10.4357  11.7802

          k =-0.0000 0.0012 0.1870 (  3890 PWs)   bands (ev):

   -72.8707 -42.2980 -41.5138 -40.9105 -11.6962 -10.7180 -10.3134 -10.0581
     0.9906   1.7940   2.0004   3.0653   3.0781   3.8756   4.0697   4.4821
     4.6632   5.0014   5.5732   5.6501   5.8347   7.0555   8.1454   9.8288
    10.4830  12.8874

          k = 0.0000-0.0023-0.3740 (  3892 PWs)   bands (ev):

   -72.8706 -42.2980 -41.5139 -40.9105 -11.3727 -10.9838 -10.3876 -10.1114
     1.2187   1.8558   2.5474   3.0343   3.0750   3.5092   3.8709   4.5717
     4.5876   4.8539   5.5064   5.5596   5.6928   7.0139   8.2156   9.6059
    10.5306  14.4922

          k =-0.0000 0.1196-0.0957 (  3887 PWs)   bands (ev):

   -72.8707 -42.2979 -41.5138 -40.9105 -11.7901 -10.6034 -10.3598 -10.0058
     1.0299   1.5180   2.1802   2.7916   3.1109   3.9371   4.1538   4.3102
     4.7542   5.0533   5.5227   5.6858   6.1249   7.1198   8.0444  10.1760
    10.4811  12.5669

          k =-0.0000 0.1207 0.0913 (  3903 PWs)   bands (ev):

   -72.8708 -42.2980 -41.5138 -40.9105 -11.7329 -10.8038 -10.2100 -10.0131
     0.9470   1.8037   2.0644   2.8988   3.0423   3.8403   3.9132   4.4853
     4.6929   5.2615   5.6103   5.6389   5.9101   7.0924   8.1424   9.8190
    10.4366  12.5407

          k = 0.0000 0.1172-0.4697 (  3919 PWs)   bands (ev):

   -72.8707 -42.2980 -41.5139 -40.9105 -11.4017 -11.0828 -10.2883 -10.0560
     1.2888   1.6424   2.4553   3.0420   3.1638   3.5214   3.8972   4.3810
     4.5914   5.1161   5.4805   5.5446   5.7441   7.0498   8.2421   9.5878
    10.4844  13.8730

          k =-0.0000 0.1184-0.2827 (  3898 PWs)   bands (ev):

   -72.8706 -42.2980 -41.5139 -40.9105 -11.5523 -10.7891 -10.4398 -10.0469
     1.2204   1.7832   2.2264   3.0008   3.1119   3.8372   3.8958   4.4327
     4.5461   4.9515   5.4711   5.5959   5.8318   7.0819   8.1662   9.9082
    10.5280  14.1208

          k = 0.0000-0.2391 0.1914 (  3906 PWs)   bands (ev):

   -72.8707 -42.2979 -41.5139 -40.9105 -11.6644 -10.6826 -10.4572  -9.9958
     1.0264   1.8250   2.3988   2.8357   3.1495   3.6394   3.9675   4.2451
     4.6100   5.0475   5.5117   5.6352   6.1259   7.1434   8.0414  10.2417
    10.5260  13.8567

          k = 0.0000-0.2380 0.3784 (  3904 PWs)   bands (ev):

   -72.8707 -42.2980 -41.5138 -40.9105 -11.5984 -10.8724 -10.3274 -10.0047
     1.3333   1.7636   1.9724   2.9242   3.0740   3.7973   3.9373   4.4347
     4.7997   4.9456   5.4763   5.5853   5.8610   7.1170   8.1753   9.9029
    10.4819  13.4593

          k = 0.0000-0.2414-0.1826 (  3896 PWs)   bands (ev):

   -72.8707 -42.2980 -41.5138 -40.9105 -11.4229 -11.1700 -10.1974 -10.0116
     1.1740   1.7626   2.3300   3.0107   3.0534   3.7154   3.9252   4.1377
     4.5994   5.2445   5.5360   5.6002   5.8114   7.0840   8.2148   9.5550
    10.4381  13.7629

          k = 0.2496-0.0618-0.1383 (  3908 PWs)   bands (ev):

   -72.8678 -42.2949 -41.5081 -40.9501 -11.3355 -10.5836 -10.1749 -10.0098
     1.3896   1.6671   2.1381   2.4266   2.8185   3.0645   3.8344   4.0236
     4.3014   5.0322   5.3593   5.5346   6.1781   6.9785   8.0451   9.7500
    10.1594  13.9722

          k = 0.2496-0.0607 0.0487 (  3889 PWs)   bands (ev):

   -72.8678 -42.2949 -41.5081 -40.9501 -11.4354 -10.4628 -10.2138  -9.9753
     1.4120   1.8088   2.0537   2.4457   2.8577   2.9077   3.7187   3.9912
     4.3219   5.0368   5.4207   5.6044   6.1064   7.0794   7.9711   9.8125
    10.1352  13.6340

          k = 0.2496-0.0641-0.5123 (  3915 PWs)   bands (ev):

   -72.8678 -42.2949 -41.5082 -40.9501 -11.2482 -10.5444 -10.3107 -10.0255
     1.3224   1.6688   2.1986   2.5704   2.7275   3.0321   3.9890   4.0988
     4.4214   4.9994   5.0835   5.5061   6.2267   6.9757   8.0385   9.6955
    10.0775  14.7403

          k = 0.2496-0.0630-0.3253 (  3914 PWs)   bands (ev):

   -72.8678 -42.2950 -41.5082 -40.9501 -11.0696 -10.7493 -10.2629 -10.0643
     1.3180   1.6453   2.1054   2.4578   2.8003   3.3554   3.9133   4.2020
     4.3853   4.9301   5.0564   5.4963   6.2421   6.8934   8.1058   9.8478
     9.9153  15.1131

          k = 0.2496 0.0577-0.2340 (  3915 PWs)   bands (ev):

   -72.8678 -42.2949 -41.5082 -40.9501 -11.2513 -10.5430 -10.3080 -10.0259
     1.3201   1.6694   2.1992   2.5675   2.7268   3.0297   3.9865   4.0972
     4.4265   5.0090   5.0775   5.5088   6.2277   6.9757   8.0392   9.6940
    10.0763  14.7323

          k = 0.2496 0.0589-0.0470 (  3893 PWs)   bands (ev):

   -72.8678 -42.2949 -41.5081 -40.9501 -11.4373 -10.4628 -10.2115  -9.9753
     1.4118   1.8077   2.0551   2.4434   2.8455   2.9180   3.7172   3.9872
     4.3293   5.0288   5.4337   5.6039   6.1027   7.0801   7.9712   9.8112
    10.1364  13.6293

          k = 0.2496 0.0554-0.6080 (  3905 PWs)   bands (ev):

   -72.8678 -42.2949 -41.5081 -40.9501 -11.3348 -10.5824 -10.1766 -10.0104
     1.3879   1.6707   2.1372   2.4253   2.8266   3.0588   3.8349   4.0227
     4.3058   5.0277   5.3556   5.5354   6.1801   6.9802   8.0434   9.7470
    10.1603  13.9813

          k = 0.2496 0.0566-0.4210 (  3913 PWs)   bands (ev):

   -72.8678 -42.2950 -41.5082 -40.9501 -11.0693 -10.7472 -10.2647 -10.0652
     1.3174   1.6450   2.1033   2.4567   2.8025   3.3615   3.9173   4.1989
     4.3816   4.9258   5.0608   5.4972   6.2434   6.8941   8.1036   9.8467
     9.9126  15.1192

          k = 0.2496-0.3009 0.0530 (  3919 PWs)   bands (ev):

   -72.8678 -42.2949 -41.5082 -40.9501 -11.1802 -10.6411 -10.3060 -10.0127
     1.4810   1.8119   2.1142   2.4657   2.7353   3.1376   3.6948   4.0359
     4.4058   4.9818   5.1382   5.5671   6.2109   6.9858   8.0596   9.6955
    10.1578  14.7287

          k = 0.2496-0.2998 0.2400 (  3910 PWs)   bands (ev):

   -72.8678 -42.2949 -41.5082 -40.9501 -11.3129 -10.4840 -10.3477  -9.9771
     1.4018   1.9333   2.2646   2.5287   2.7021   2.9070   3.5416   3.9526
     4.5202   5.0036   5.1471   5.6226   6.1766   7.0981   7.9648   9.7490
    10.1167  14.5155

          k = 0.2496-0.3032-0.3209 (  3906 PWs)   bands (ev):

   -72.8678 -42.2949 -41.5081 -40.9501 -11.2825 -10.6486 -10.1849  -9.9993
     1.6151   1.7850   1.9123   2.5508   2.8321   3.0901   3.5812   3.8950
     4.1897   5.0954   5.4025   5.6050   6.1550   6.9856   8.0608   9.7633
    10.2435  13.8998

          k = 0.2496-0.3021-0.1340 (  3915 PWs)   bands (ev):

   -72.8678 -42.2950 -41.5081 -40.9501 -11.0649 -10.8758 -10.1605 -10.0312
     1.5703   1.7156   1.9382   2.5599   2.8250   3.1203   3.5534   4.1833
     4.2979   4.8912   5.3722   5.5562   6.2093   6.8865   8.1249   9.9383
    10.0122  14.6390

          k = 0.2496-0.1814-0.0427 (  3909 PWs)   bands (ev):

   -72.8678 -42.2949 -41.5081 -40.9501 -11.2802 -10.6493 -10.1872  -9.9991
     1.6125   1.7869   1.9087   2.5596   2.8342   3.0831   3.5820   3.9001
     4.1899   5.1005   5.3881   5.6103   6.1571   6.9837   8.0604   9.7662
    10.2390  13.9008

          k = 0.2496-0.1802 0.1443 (  3918 PWs)   bands (ev):

   -72.8678 -42.2949 -41.5082 -40.9501 -11.3104 -10.4847 -10.3501  -9.9771
     1.4002   1.9328   2.2684   2.5329   2.7080   2.9010   3.5400   3.9540
     4.5172   4.9985   5.1509   5.6219   6.1769   7.0973   7.9648   9.7488
    10.1172  14.5258

          k = 0.2496-0.1837-0.4166 (  3919 PWs)   bands (ev):

   -72.8678 -42.2949 -41.5082 -40.9501 -11.1804 -10.6436 -10.3039 -10.0119
     1.4834   1.8156   2.1126   2.4692   2.7257   3.1425   3.6860   4.0380
     4.4062   4.9862   5.1375   5.5640   6.2079   6.9863   8.0601   9.6971
    10.1622  14.7166

          k = 0.2496-0.1825-0.2296 (  3905 PWs)   bands (ev):

   -72.8678 -42.2950 -41.5081 -40.9500 -11.0648 -10.8779 -10.1586 -10.0309
     1.5720   1.7130   1.9421   2.5634   2.8199   3.1195   3.5474   4.1856
     4.2983   4.8887   5.3801   5.5529   6.2074   6.8856   8.1267   9.9380
    10.0164  14.6362

          k =-0.4993 0.1236 0.2767 (  3922 PWs)   bands (ev):

   -72.8654 -42.2919 -41.5024 -40.9893 -10.7007 -10.3804 -10.2408 -10.0824
     0.6981   1.2362   1.8574   2.2774   2.6037   3.5538   3.8839   4.2998
     4.5408   4.8463   4.8514   5.3062   6.0035   6.8326   7.9404  10.0351
    10.1597  15.3456

          k =-0.4993 0.1248 0.4637 (  3917 PWs)   bands (ev):

   -72.8654 -42.2919 -41.5024 -40.9893 -10.7435 -10.3998 -10.2251 -10.0422
     0.9070   1.2802   1.9631   2.3770   2.6096   3.4660   3.6885   4.2403
     4.4167   4.5833   4.9474   5.1703   6.0002   7.0017   7.9208   9.8475
    10.1191  15.8587

          k =-0.4992 0.1213-0.0973 (  3934 PWs)   bands (ev):

   -72.8654 -42.2919 -41.5024 -40.9893 -10.7808 -10.4199 -10.2087 -10.0073
     1.1020   1.3849   2.1925   2.4357   2.6793   3.0929   3.4294   4.1915
     4.3446   4.5775   4.8775   5.0839   5.9918   7.1303   7.9059   9.6311
    10.1367  16.0168

          k =-0.4993 0.2432 0.1810 (  3926 PWs)   bands (ev):

   -72.8654 -42.2919 -41.5024 -40.9893 -10.7008 -10.3796 -10.2415 -10.0824
     0.7553   1.1499   1.8573   2.2893   2.5657   3.7239   3.8566   4.2452
     4.5202   4.8194   4.8737   5.2998   6.0026   6.8360   7.9328  10.0558
    10.1285  15.7004

          k =-0.4993 0.2443 0.3680 (  3920 PWs)   bands (ev):

   -72.8654 -42.2919 -41.5024 -40.9893 -10.7447 -10.4038 -10.2204 -10.0414
     0.9015   1.3051   1.9672   2.2323   2.8048   3.3693   3.6965   4.2194
     4.4255   4.5877   4.9687   5.1710   5.9983   7.0072   7.9204   9.8301
    10.1362  15.6508

          k =-0.4993 0.2409-0.1930 (  3909 PWs)   bands (ev):

   -72.8654 -42.2919 -41.5024 -40.9893 -10.7830 -10.4173 -10.2118 -10.0042
     1.1197   1.3551   2.1502   2.5216   2.7140   3.0203   3.4750   4.1567
     4.2992   4.5695   4.8638   5.1389   5.9955   7.1375   7.9057   9.6387
    10.1263  15.9968

          k =-0.4993 0.2420-0.0060 (  3921 PWs)   bands (ev):

   -72.8654 -42.2919 -41.5024 -40.9893 -10.7433 -10.4003 -10.2246 -10.0423
     0.8992   1.3070   1.9606   2.2330   2.8017   3.3726   3.6962   4.2320
     4.4309   4.5841   4.9696   5.1674   5.9990   7.0040   7.9180   9.8337
    10.1359  15.6385

          k =-0.4992-0.1155 0.4681 (  3922 PWs)   bands (ev):

   -72.8654 -42.2919 -41.5024 -40.9893 -10.7011 -10.3773 -10.2446 -10.0812
     0.7008   1.2372   1.8537   2.2650   2.5902   3.5548   3.9019   4.3140
     4.5488   4.8406   4.8546   5.3032   6.0040   6.8306   7.9350  10.0306
    10.1615  15.3370

          k =-0.4992-0.1143 0.6551 (  3914 PWs)   bands (ev):

   -72.8654 -42.2919 -41.5024 -40.9893 -10.7451 -10.4009 -10.2240 -10.0402
     0.9128   1.2782   1.9601   2.3721   2.6001   3.4668   3.6896   4.2523
     4.4115   4.5902   4.9474   5.1712   6.0000   7.0026   7.9188   9.8432
    10.1197  15.8761

          k =-0.4992-0.1178 0.0941 (  3922 PWs)   bands (ev):

   -72.8654 -42.2919 -41.5024 -40.9893 -10.7834 -10.4238 -10.2042 -10.0047
     1.1125   1.3824   2.1889   2.4289   2.6725   3.0914   3.4340   4.1866
     4.3471   4.5772   4.8855   5.0838   5.9909   7.1346   7.9058   9.6214
    10.1377  16.0254

     the Fermi energy is     7.0474 ev

!    total energy              =    -520.61839920 Ry
     total all-electron energy =     -3720.871658 Ry
     estimated scf accuracy    <       0.00000012 Ry
     smearing contrib. (-TS)   =      -0.00520049 Ry
     internal energy E=F+TS    =    -520.61319872 Ry

     The total energy is F=E-TS. E is the sum of the following terms:
     one-electron contribution =    -241.13916303 Ry
     hartree contribution      =     145.68224726 Ry
     xc contribution           =     -61.26638931 Ry
     ewald contribution        =    -185.39146750 Ry
     Hubbard energy            =       0.24550353 Ry
     one-center paw contrib.   =    -178.74392967 Ry

     convergence has been achieved in  15 iterations
     force_hub    :     44.86s CPU      6.38s WALL (       3 calls)
     dndtau       :     40.19s CPU      5.67s WALL (    2268 calls)
     dprojdtau    :      5.70s CPU      0.88s WALL (    2268 calls)
     calc_doverla :     22.48s CPU      3.15s WALL (    2268 calls)
     matel_dSdtau :     29.52s CPU      4.06s WALL (    4536 calls)

     Forces acting on atoms (cartesian axes, Ry/au):

     atom    1 type  1   force =     0.00151862   -0.00970941   -0.00762623
     atom    2 type  1   force =    -0.00044616    0.00676560   -0.01415062
     atom    3 type  3   force =    -0.00026002    0.00570378    0.00919681
     atom    4 type  2   force =    -0.00071963   -0.00559493    0.00620551
     atom    5 type  2   force =     0.00057577    0.00295014    0.00104668
     atom    6 type  2   force =     0.00029604   -0.00368801   -0.00261673
     atom    7 type  2   force =    -0.00096462    0.00357283    0.00794458

     Total force =     0.026381     Total SCF correction =     0.000582


     Computing stress (Cartesian axis) and pressure

     stres_hub    :    125.47s CPU     16.33s WALL (       3 calls)
     dprojdepsilo :    102.95s CPU     13.36s WALL (     972 calls)
     dprojdeps1   :     10.56s CPU      1.48s WALL (     972 calls)
     dprojdeps2   :     56.81s CPU      7.52s WALL (     972 calls)
     dprojdeps3   :     35.58s CPU      4.36s WALL (     972 calls)
          total   stress  (Ry/bohr**3)                   (kbar)     P=        7.08
   0.00004548  -0.00000288   0.00000271            6.69       -0.42        0.40
  -0.00000288   0.00008836   0.00003421           -0.42       13.00        5.03
   0.00000271   0.00003421   0.00001057            0.40        5.03        1.55

     Energy error            =      1.4E-03 Ry
     Gradient error          =      1.4E-02 Ry/Bohr
     Cell gradient error     =      1.3E+01 kbar

     number of scf cycles    =   3
     number of bfgs steps    =   2

     enthalpy           old  =    -520.6169601116 Ry
     enthalpy           new  =    -520.6183992030 Ry

     CASE: enthalpy          _new < enthalpy          _old

     new trust radius        =       0.0303686146 bohr
     new conv_thr            =       0.0000001415 Ry

     new unit-cell volume =    486.68543 a.u.^3 (    72.11934 Ang^3 )
     density =      3.85768 g/cm^3

CELL_PARAMETERS (angstrom)
   2.968453084  -0.000086362   0.000343120
   1.505672587   6.156017082  -0.038248981
   2.967096693   3.150077191   3.927240670

ATOMIC_POSITIONS (angstrom)
Mg               3.4396427563        4.7858095058        1.4705401102
Mg               3.4438888205        1.0745590554        0.3549702228
Mn               4.9279749720        2.3083820455        2.5134457682
O                3.4663718843        6.8577066223        1.7503188892
O                4.9257849659        4.2745591632        2.8595120150
O                3.4441110353        2.7909317429        1.3503081520
O                4.9491433817        8.3242432164        3.8280578036



     Writing config-only to output data dir .\out\\qgan.save\ :
     XML data file
     NEW-OLD atomic charge density approx. for the potential
     New effective cutoffs (rho, wfc):  498.35   62.34

     Check: negative core charge=   -0.000002

     Atomic wfc used for Hubbard projectors are orthogonalized


     total cpu time spent up to now is      211.2 secs

     Self-consistent Calculation

     iteration #  1     ecut=    60.00 Ry     beta= 0.70
     Davidson diagonalization with overlap
     ethr =  1.00E-06,  avg # of iterations = 10.8

     =================== HUBBARD OCCUPATIONS ===================
     ------------------------ ATOM    3 ------------------------
     Tr[ns(  3)] =   5.24623
     eigenvalues:
       0.219  0.315  0.401  0.714  0.974
     eigenvectors (columns):
       0.546  0.001  0.203  0.000  0.813
      -0.002  0.960  0.000  0.281  0.000
      -0.798 -0.001  0.422  0.000  0.431
       0.255 -0.000  0.884  0.002 -0.393
       0.000  0.281  0.002 -0.960 -0.000
     occupation matrix ns (before diag.):
       0.725  0.000  0.280 -0.208 -0.000
       0.000  0.347 -0.000  0.000 -0.108
       0.280 -0.000  0.391 -0.060 -0.000
      -0.208  0.000 -0.060  0.477 -0.000
      -0.000 -0.108 -0.000 -0.000  0.682

     Number of occupied Hubbard levels =    5.2462

     total cpu time spent up to now is      217.0 secs

     total energy              =    -520.61883122 Ry
     estimated scf accuracy    <       0.00086854 Ry

     iteration #  2     ecut=    60.00 Ry     beta= 0.70
     Davidson diagonalization with overlap
     ethr =  2.02E-06,  avg # of iterations =  4.4

     total cpu time spent up to now is      220.0 secs

     total energy              =    -520.61810550 Ry
     estimated scf accuracy    <       0.01033897 Ry

     iteration #  3     ecut=    60.00 Ry     beta= 0.70
     Davidson diagonalization with overlap
     ethr =  2.02E-06,  avg # of iterations =  3.6

     total cpu time spent up to now is      222.5 secs

     total energy              =    -520.61909075 Ry
     estimated scf accuracy    <       0.00082644 Ry

     iteration #  4     ecut=    60.00 Ry     beta= 0.70
     Davidson diagonalization with overlap
     ethr =  1.92E-06,  avg # of iterations =  2.0

     total cpu time spent up to now is      224.8 secs

     total energy              =    -520.61924172 Ry
     estimated scf accuracy    <       0.00006008 Ry

     iteration #  5     ecut=    60.00 Ry     beta= 0.70
     Davidson diagonalization with overlap
     ethr =  1.40E-07,  avg # of iterations =  6.0

     total cpu time spent up to now is      228.2 secs

     total energy              =    -520.61930932 Ry
     estimated scf accuracy    <       0.00012176 Ry

     iteration #  6     ecut=    60.00 Ry     beta= 0.70
     Davidson diagonalization with overlap
     ethr =  1.40E-07,  avg # of iterations =  1.2

     total cpu time spent up to now is      230.3 secs

     total energy              =    -520.61930795 Ry
     estimated scf accuracy    <       0.00005475 Ry

     iteration #  7     ecut=    60.00 Ry     beta= 0.70
     Davidson diagonalization with overlap
     ethr =  1.27E-07,  avg # of iterations =  1.1

     total cpu time spent up to now is      232.6 secs

     total energy              =    -520.61930500 Ry
     estimated scf accuracy    <       0.00002068 Ry

     iteration #  8     ecut=    60.00 Ry     beta= 0.70
     Davidson diagonalization with overlap
     ethr =  4.81E-08,  avg # of iterations =  2.0

     total cpu time spent up to now is      235.0 secs

     total energy              =    -520.61930856 Ry
     estimated scf accuracy    <       0.00000110 Ry

     iteration #  9     ecut=    60.00 Ry     beta= 0.70
     Davidson diagonalization with overlap
     c_bands:  1 eigenvalues not converged
     c_bands:  2 eigenvalues not converged
     c_bands:  2 eigenvalues not converged
     c_bands:  2 eigenvalues not converged
     ethr =  2.56E-09,  avg # of iterations = 14.2

     total cpu time spent up to now is      240.7 secs

     total energy              =    -520.61931170 Ry
     estimated scf accuracy    <       0.00000247 Ry

     iteration # 10     ecut=    60.00 Ry     beta= 0.70
     Davidson diagonalization with overlap
     ethr =  2.56E-09,  avg # of iterations =  1.4

     total cpu time spent up to now is      242.8 secs

     total energy              =    -520.61931126 Ry
     estimated scf accuracy    <       0.00000192 Ry

     iteration # 11     ecut=    60.00 Ry     beta= 0.70
     Davidson diagonalization with overlap
     ethr =  2.56E-09,  avg # of iterations =  3.3

     total cpu time spent up to now is      245.2 secs

     total energy              =    -520.61931162 Ry
     estimated scf accuracy    <       0.00000029 Ry

     iteration # 12     ecut=    60.00 Ry     beta= 0.70
     Davidson diagonalization with overlap
     ethr =  6.74E-10,  avg # of iterations = 10.4

     total cpu time spent up to now is      249.5 secs

     total energy              =    -520.61931208 Ry
     estimated scf accuracy    <       0.00000251 Ry

     iteration # 13     ecut=    60.00 Ry     beta= 0.70
     Davidson diagonalization with overlap
     ethr =  6.74E-10,  avg # of iterations =  4.7

     total cpu time spent up to now is      252.5 secs

     total energy              =    -520.61931151 Ry
     estimated scf accuracy    <       0.00000022 Ry

     iteration # 14     ecut=    60.00 Ry     beta= 0.70
     Davidson diagonalization with overlap
     ethr =  5.09E-10,  avg # of iterations =  4.6

     total cpu time spent up to now is      255.4 secs

     total energy              =    -520.61931277 Ry
     estimated scf accuracy    <       0.00000028 Ry

     iteration # 15     ecut=    60.00 Ry     beta= 0.70
     Davidson diagonalization with overlap
     ethr =  5.09E-10,  avg # of iterations =  2.0

     total cpu time spent up to now is      257.7 secs

     total energy              =    -520.61931217 Ry
     estimated scf accuracy    <       0.00000047 Ry

     iteration # 16     ecut=    60.00 Ry     beta= 0.70
     Davidson diagonalization with overlap
     ethr =  5.09E-10,  avg # of iterations =  2.8

     total cpu time spent up to now is      260.3 secs

     End of self-consistent calculation

     =================== HUBBARD OCCUPATIONS ===================
     ------------------------ ATOM    3 ------------------------
     Tr[ns(  3)] =   5.23289
     eigenvalues:
       0.217  0.315  0.400  0.711  0.974
     eigenvectors (columns):
       0.538  0.001 -0.203  0.001  0.818
      -0.002  0.961  0.000  0.275  0.000
      -0.802 -0.001 -0.422 -0.001  0.423
       0.259  0.001 -0.884  0.002 -0.390
       0.001  0.275 -0.001 -0.961 -0.000
     occupation matrix ns (before diag.):
       0.731  0.000  0.278 -0.209 -0.000
       0.000  0.345 -0.000  0.000 -0.105
       0.278 -0.000  0.385 -0.057  0.000
      -0.209  0.000 -0.057  0.475 -0.001
      -0.000 -0.105  0.000 -0.001  0.681

     Number of occupied Hubbard levels =    5.2329

          k = 0.0000 0.0000 0.0000 (  3893 PWs)   bands (ev):

   -72.8767 -42.3028 -41.5241 -40.9148 -11.8877 -10.5756 -10.2479 -10.0109
     0.8116   1.5103   2.2070   2.6822   3.0811   3.8886   4.2030   4.3443
     4.6501   5.4569   5.6213   5.7058   6.1149   7.1084   8.0331  10.1036
    10.3988  11.7617

          k =-0.0000 0.0012 0.1873 (  3890 PWs)   bands (ev):

   -72.8767 -42.3029 -41.5242 -40.9148 -11.6917 -10.7201 -10.3268 -10.0518
     0.9973   1.7990   1.9953   3.0729   3.0826   3.8534   4.0571   4.4577
     4.6712   4.9870   5.5700   5.6217   5.8097   7.0669   8.1346   9.8162
    10.4451  12.8705

          k = 0.0000-0.0023-0.3747 (  3892 PWs)   bands (ev):

   -72.8766 -42.3029 -41.5242 -40.9148 -11.3621 -10.9898 -10.4022 -10.1063
     1.2227   1.8606   2.5499   3.0290   3.0772   3.5053   3.8518   4.5486
     4.5840   4.8584   5.5000   5.5329   5.6609   7.0246   8.2076   9.5891
    10.4917  14.4724

          k = 0.0000 0.1195-0.0959 (  3887 PWs)   bands (ev):

   -72.8767 -42.3028 -41.5241 -40.9148 -11.7863 -10.6033 -10.3758  -9.9985
     1.0333   1.5231   2.1855   2.7901   3.1177   3.9129   4.1490   4.2860
     4.7530   5.0361   5.5151   5.6568   6.1112   7.1310   8.0311  10.1649
    10.4439  12.5490

          k =-0.0000 0.1207 0.0915 (  3903 PWs)   bands (ev):

   -72.8767 -42.3029 -41.5241 -40.9148 -11.7301 -10.8039 -10.2233 -10.0074
     0.9537   1.7963   2.0767   2.9034   3.0466   3.8304   3.8907   4.4612
     4.6889   5.2538   5.6042   5.6108   5.8859   7.1036   8.1315   9.8081
    10.3991  12.5253

          k = 0.0001 0.1172-0.4705 (  3919 PWs)   bands (ev):

   -72.8766 -42.3029 -41.5242 -40.9148 -11.3948 -11.0851 -10.3021 -10.0516
     1.2940   1.6463   2.4534   3.0444   3.1662   3.5174   3.8771   4.3810
     4.5659   5.1171   5.4685   5.5182   5.7151   7.0603   8.2315   9.5757
    10.4459  13.8607

          k = 0.0000 0.1183-0.2832 (  3898 PWs)   bands (ev):

   -72.8766 -42.3029 -41.5242 -40.9148 -11.5457 -10.7907 -10.4552 -10.0412
     1.2223   1.7874   2.2348   2.9950   3.1166   3.8328   3.8744   4.4073
     4.5444   4.9468   5.4643   5.5684   5.8092   7.0925   8.1541   9.8949
    10.4898  14.1043

          k =-0.0000-0.2390 0.1917 (  3906 PWs)   bands (ev):

   -72.8766 -42.3028 -41.5242 -40.9148 -11.6588 -10.6825 -10.4747  -9.9886
     1.0244   1.8414   2.4050   2.8275   3.1571   3.6300   3.9435   4.2199
     4.6107   5.0330   5.5077   5.6071   6.1109   7.1539   8.0258  10.2303
    10.4884  13.8410

          k =-0.0001-0.2378 0.3790 (  3904 PWs)   bands (ev):

   -72.8766 -42.3029 -41.5242 -40.9148 -11.5944 -10.8716 -10.3420  -9.9996
     1.3371   1.7612   1.9836   2.9232   3.0786   3.7962   3.9156   4.4097
     4.7866   4.9449   5.4668   5.5579   5.8403   7.1275   8.1626   9.8917
    10.4440  13.4449

          k = 0.0000-0.2413-0.1829 (  3896 PWs)   bands (ev):

   -72.8767 -42.3029 -41.5241 -40.9148 -11.4201 -11.1687 -10.2107 -10.0073
     1.1792   1.7667   2.3278   3.0134   3.0591   3.7081   3.9045   4.1407
     4.5741   5.2357   5.5099   5.5960   5.7798   7.0945   8.2022   9.5464
    10.3999  13.7560

          k = 0.2491-0.0618-0.1386 (  3908 PWs)   bands (ev):

   -72.8739 -42.2999 -41.5186 -40.9532 -11.3355 -10.5902 -10.1828 -10.0094
     1.3886   1.6632   2.1391   2.4236   2.8222   3.0447   3.8318   4.0140
     4.2959   5.0284   5.3466   5.5279   6.1551   6.9834   8.0388   9.7303
    10.1384  13.9579

          k = 0.2490-0.0606 0.0487 (  3889 PWs)   bands (ev):

   -72.8739 -42.2999 -41.5186 -40.9533 -11.4360 -10.4694 -10.2218  -9.9744
     1.4103   1.8129   2.0481   2.4479   2.8512   2.8999   3.7123   3.9787
     4.3182   5.0256   5.4083   5.6037   6.0835   7.0809   7.9666   9.7928
    10.1134  13.6172

          k = 0.2491-0.0641-0.5133 (  3915 PWs)   bands (ev):

   -72.8739 -42.2999 -41.5186 -40.9533 -11.2462 -10.5515 -10.3216 -10.0236
     1.3171   1.6667   2.2028   2.5763   2.7144   3.0208   3.9831   4.0923
     4.4241   4.9837   5.0726   5.5015   6.1992   6.9824   8.0335   9.6763
    10.0586  14.7254

          k = 0.2491-0.0629-0.3260 (  3914 PWs)   bands (ev):

   -72.8739 -42.3000 -41.5186 -40.9532 -11.0633 -10.7600 -10.2741 -10.0628
     1.3146   1.6363   2.1135   2.4601   2.7794   3.3467   3.9156   4.2047
     4.3834   4.9193   5.0391   5.4891   6.2138   6.9016   8.1012   9.8345
     9.8910  15.1066

          k = 0.2491 0.0577-0.2345 (  3915 PWs)   bands (ev):

   -72.8739 -42.2999 -41.5186 -40.9533 -11.2491 -10.5503 -10.3189 -10.0240
     1.3151   1.6674   2.2038   2.5731   2.7135   3.0187   3.9812   4.0902
     4.4284   4.9935   5.0667   5.5042   6.1998   6.9829   8.0337   9.6743
    10.0586  14.7176

          k = 0.2491 0.0589-0.0472 (  3893 PWs)   bands (ev):

   -72.8739 -42.2999 -41.5186 -40.9533 -11.4378 -10.4694 -10.2195  -9.9743
     1.4100   1.8118   2.0495   2.4458   2.8392   2.9104   3.7108   3.9751
     4.3245   5.0179   5.4208   5.6038   6.0798   7.0814   7.9667   9.7919
    10.1143  13.6126

          k = 0.2491 0.0554-0.6091 (  3905 PWs)   bands (ev):

   -72.8739 -42.2999 -41.5186 -40.9532 -11.3347 -10.5890 -10.1843 -10.0101
     1.3870   1.6664   2.1380   2.4219   2.8312   3.0386   3.8320   4.0140
     4.3000   5.0239   5.3423   5.5290   6.1577   6.9848   8.0377   9.7284
    10.1380  13.9664

          k = 0.2491 0.0565-0.4218 (  3913 PWs)   bands (ev):

   -72.8739 -42.3000 -41.5186 -40.9532 -11.0630 -10.7580 -10.2757 -10.0637
     1.3141   1.6360   2.1113   2.4596   2.7812   3.3519   3.9202   4.2016
     4.3799   4.9146   5.0436   5.4901   6.2151   6.9024   8.0992   9.8327
     9.8894  15.1119

          k = 0.2490-0.3008 0.0531 (  3919 PWs)   bands (ev):

   -72.8739 -42.2999 -41.5186 -40.9533 -11.1782 -10.6459 -10.3193 -10.0108
     1.4712   1.8152   2.1226   2.4603   2.7239   3.1315   3.6946   4.0249
     4.4064   4.9622   5.1323   5.5603   6.1838   6.9931   8.0530   9.6763
    10.1411  14.7215

          k = 0.2490-0.2996 0.2404 (  3910 PWs)   bands (ev):

   -72.8739 -42.2999 -41.5186 -40.9533 -11.3119 -10.4846 -10.3649  -9.9743
     1.3921   1.9457   2.2716   2.5250   2.6892   2.8990   3.5391   3.9381
     4.5203   4.9828   5.1408   5.6201   6.1489   7.1035   7.9587   9.7281
    10.1002  14.5035

          k = 0.2491-0.3031-0.3216 (  3906 PWs)   bands (ev):

   -72.8739 -42.2999 -41.5186 -40.9532 -11.2829 -10.6527 -10.1953  -9.9983
     1.6079   1.7863   1.9127   2.5526   2.8270   3.0772   3.5809   3.8846
     4.1808   5.0912   5.3917   5.5958   6.1335   6.9904   8.0540   9.7452
    10.2220  13.8884

          k = 0.2491-0.3019-0.1342 (  3915 PWs)   bands (ev):

   -72.8739 -42.3000 -41.5186 -40.9532 -11.0614 -10.8837 -10.1708 -10.0303
     1.5686   1.7035   1.9447   2.5650   2.8160   3.1016   3.5474   4.1805
     4.2975   4.8859   5.3617   5.5453   6.1856   6.8946   8.1168   9.9267
     9.9856  14.6351

          k = 0.2491-0.1813-0.0428 (  3909 PWs)   bands (ev):

   -72.8739 -42.2999 -41.5186 -40.9532 -11.2806 -10.6534 -10.1976  -9.9981
     1.6060   1.7878   1.9097   2.5607   2.8290   3.0697   3.5817   3.8889
     4.1816   5.0962   5.3784   5.6006   6.1348   6.9892   8.0532   9.7468
    10.2192  13.8892

          k = 0.2490-0.1801 0.1446 (  3918 PWs)   bands (ev):

   -72.8739 -42.2999 -41.5186 -40.9533 -11.3095 -10.4851 -10.3674  -9.9743
     1.3907   1.9451   2.2757   2.5284   2.6943   2.8935   3.5377   3.9394
     4.5181   4.9778   5.1443   5.6194   6.1492   7.1028   7.9587   9.7277
    10.1007  14.5133

          k = 0.2491-0.1836-0.4174 (  3919 PWs)   bands (ev):

   -72.8739 -42.2999 -41.5186 -40.9533 -11.1784 -10.6482 -10.3173 -10.0100
     1.4730   1.8184   2.1210   2.4638   2.7154   3.1361   3.6866   4.0271
     4.4064   4.9665   5.1317   5.5570   6.1813   6.9928   8.0540   9.6787
    10.1439  14.7108

          k = 0.2491-0.1824-0.2301 (  3905 PWs)   bands (ev):

   -72.8739 -42.3000 -41.5186 -40.9532 -11.0613 -10.8857 -10.1690 -10.0299
     1.5698   1.7015   1.9481   2.5680   2.8117   3.1013   3.5413   4.1834
     4.2971   4.8836   5.3694   5.5420   6.1837   6.8935   8.1184   9.9270
     9.9889  14.6327

          k =-0.4981 0.1236 0.2772 (  3922 PWs)   bands (ev):

   -72.8716 -42.2970 -41.5131 -40.9914 -10.7032 -10.4009 -10.2296 -10.0949
     0.7002   1.2291   1.8546   2.2704   2.5961   3.5401   3.8779   4.2818
     4.5348   4.8519   4.8535   5.3165   5.9849   6.8234   7.9392  10.0211
    10.1399  15.3405

          k =-0.4982 0.1247 0.4646 (  3917 PWs)   bands (ev):

   -72.8716 -42.2970 -41.5131 -40.9914 -10.7467 -10.4176 -10.2163 -10.0543
     0.9102   1.2690   1.9661   2.3728   2.6002   3.4558   3.6831   4.2335
     4.4063   4.5805   4.9455   5.1743   5.9816   6.9952   7.9211   9.8356
    10.0941  15.8607

          k =-0.4981 0.1212-0.0974 (  3934 PWs)   bands (ev):

   -72.8715 -42.2970 -41.5131 -40.9914 -10.7844 -10.4362 -10.2011 -10.0195
     1.1016   1.3758   2.2034   2.4320   2.6719   3.0829   3.4240   4.1865
     4.3414   4.5569   4.8855   5.0752   5.9731   7.1256   7.9079   9.6177
    10.1096  16.0400

          k =-0.4981 0.2431 0.1814 (  3926 PWs)   bands (ev):

   -72.8716 -42.2970 -41.5131 -40.9914 -10.7033 -10.4003 -10.2297 -10.0952
     0.7594   1.1398   1.8556   2.2819   2.5589   3.7134   3.8431   4.2275
     4.5208   4.8211   4.8765   5.3099   5.9842   6.8267   7.9317  10.0418
    10.1088  15.6896

          k =-0.4981 0.2442 0.3687 (  3920 PWs)   bands (ev):

   -72.8716 -42.2970 -41.5131 -40.9914 -10.7478 -10.4213 -10.2119 -10.0537
     0.9036   1.2950   1.9697   2.2271   2.7986   3.3587   3.6888   4.2133
     4.4185   4.5820   4.9669   5.1747   5.9798   7.0008   7.9209   9.8185
    10.1112  15.6487

          k =-0.4981 0.2407-0.1933 (  3909 PWs)   bands (ev):

   -72.8715 -42.2969 -41.5131 -40.9914 -10.7867 -10.4335 -10.2048 -10.0160
     1.1189   1.3468   2.1562   2.5268   2.7044   3.0074   3.4712   4.1552
     4.2922   4.5486   4.8703   5.1316   5.9767   7.1327   7.9078   9.6255
    10.0998  16.0112

          k =-0.4981 0.2419-0.0059 (  3921 PWs)   bands (ev):

   -72.8716 -42.2970 -41.5131 -40.9914 -10.7465 -10.4183 -10.2152 -10.0548
     0.9016   1.2963   1.9637   2.2275   2.7961   3.3616   3.6893   4.2240
     4.4248   4.5781   4.9683   5.1708   5.9805   6.9980   7.9185   9.8220
    10.1104  15.6370

          k =-0.4982-0.1154 0.4690 (  3922 PWs)   bands (ev):

   -72.8716 -42.2970 -41.5131 -40.9914 -10.7036 -10.3984 -10.2322 -10.0941
     0.7027   1.2294   1.8506   2.2597   2.5837   3.5411   3.8938   4.2957
     4.5432   4.8442   4.8582   5.3134   5.9856   6.8219   7.9343  10.0179
    10.1404  15.3316

          k =-0.4982-0.1143 0.6563 (  3914 PWs)   bands (ev):

   -72.8716 -42.2970 -41.5131 -40.9914 -10.7483 -10.4185 -10.2153 -10.0524
     0.9155   1.2671   1.9633   2.3683   2.5917   3.4558   3.6847   4.2437
     4.4027   4.5866   4.9457   5.1747   5.9815   6.9963   7.9193   9.8317
    10.0947  15.8777

          k =-0.4981-0.1178 0.0943 (  3922 PWs)   bands (ev):

   -72.8715 -42.2970 -41.5131 -40.9914 -10.7869 -10.4396 -10.1974 -10.0169
     1.1110   1.3740   2.1997   2.4262   2.6661   3.0813   3.4278   4.1824
     4.3426   4.5577   4.8927   5.0748   5.9723   7.1296   7.9078   9.6088
    10.1109  16.0470

     the Fermi energy is     7.0515 ev

!    total energy              =    -520.61931299 Ry
     total all-electron energy =     -3720.872571 Ry
     estimated scf accuracy    <          6.7E-09 Ry
     smearing contrib. (-TS)   =      -0.00518278 Ry
     internal energy E=F+TS    =    -520.61413020 Ry

     The total energy is F=E-TS. E is the sum of the following terms:
     one-electron contribution =    -240.68646987 Ry
     hartree contribution      =     145.44393550 Ry
     xc contribution           =     -61.26043833 Ry
     ewald contribution        =    -185.61360957 Ry
     Hubbard energy            =       0.24548831 Ry
     one-center paw contrib.   =    -178.74303624 Ry

     convergence has been achieved in  16 iterations
     force_hub    :     60.34s CPU      8.52s WALL (       4 calls)
     dndtau       :     54.05s CPU      7.50s WALL (    3024 calls)
     dprojdtau    :      7.67s CPU      1.18s WALL (    3024 calls)
     calc_doverla :     29.44s CPU      4.13s WALL (    3024 calls)
     matel_dSdtau :     39.48s CPU      5.38s WALL (    6048 calls)

     Forces acting on atoms (cartesian axes, Ry/au):

     atom    1 type  1   force =     0.00139319   -0.00515542   -0.00673566
     atom    2 type  1   force =    -0.00029742    0.00610270   -0.00723521
     atom    3 type  3   force =    -0.00004657    0.00756620    0.00404672
     atom    4 type  2   force =    -0.00063745   -0.00605944    0.00378319
     atom    5 type  2   force =     0.00040659    0.00235491   -0.00027209
     atom    6 type  2   force =     0.00008299   -0.00752969   -0.00090288
     atom    7 type  2   force =    -0.00090133    0.00272075    0.00731594

     Total force =     0.020339     Total SCF correction =     0.000206


     Computing stress (Cartesian axis) and pressure

     stres_hub    :    167.81s CPU     21.68s WALL (       4 calls)
     dprojdepsilo :    136.41s CPU     17.71s WALL (    1296 calls)
     dprojdeps1   :     13.66s CPU      1.96s WALL (    1296 calls)
     dprojdeps2   :     75.02s CPU      9.96s WALL (    1296 calls)
     dprojdeps3   :     47.72s CPU      5.78s WALL (    1296 calls)
          total   stress  (Ry/bohr**3)                   (kbar)     P=        5.29
  -0.00000629  -0.00000439   0.00000411           -0.93       -0.65        0.60
  -0.00000439   0.00008177   0.00004305           -0.65       12.03        6.33
   0.00000411   0.00004305   0.00003249            0.60        6.33        4.78

     Energy error            =      9.1E-04 Ry
     Gradient error          =      7.6E-03 Ry/Bohr
     Cell gradient error     =      1.2E+01 kbar

     number of scf cycles    =   4
     number of bfgs steps    =   3

     enthalpy           old  =    -520.6183992030 Ry
     enthalpy           new  =    -520.6193129863 Ry

     CASE: enthalpy          _new < enthalpy          _old

     new trust radius        =       0.0454955038 bohr
     new conv_thr            =       0.0000000757 Ry

     new unit-cell volume =    487.97845 a.u.^3 (    72.31095 Ang^3 )
     density =      3.84746 g/cm^3

CELL_PARAMETERS (angstrom)
   2.973537181  -0.000882732   0.001165432
   1.506551019   6.168946600  -0.031244217
   2.972424031   3.160473669   3.926593853

ATOMIC_POSITIONS (angstrom)
Mg               3.4476398880        4.7810305967        1.4603393841
Mg               3.4488014114        1.0894070926        0.3364456199
Mn               4.9359194887        2.3132510866        2.5224763906
O                3.4694815991        6.8734091084        1.7710795959
O                4.9349399731        4.2882445007        2.8612928939
O                3.4502058096        2.7914954157        1.3517089739
O                4.9545528256        8.3534098075        3.8467282358



     Writing config-only to output data dir .\out\\qgan.save\ :
     XML data file
     NEW-OLD atomic charge density approx. for the potential
     New effective cutoffs (rho, wfc):  497.10   62.12

     Check: negative core charge=   -0.000002

     Atomic wfc used for Hubbard projectors are orthogonalized


     total cpu time spent up to now is      270.7 secs

     Self-consistent Calculation

     iteration #  1     ecut=    60.00 Ry     beta= 0.70
     Davidson diagonalization with overlap
     ethr =  1.00E-06,  avg # of iterations = 12.6

     =================== HUBBARD OCCUPATIONS ===================
     ------------------------ ATOM    3 ------------------------
     Tr[ns(  3)] =   5.24296
     eigenvalues:
       0.220  0.312  0.400  0.715  0.975
     eigenvectors (columns):
      -0.539 -0.000  0.202  0.001 -0.818
       0.002 -0.962 -0.001  0.272 -0.001
       0.801  0.001  0.424 -0.001 -0.423
      -0.261 -0.001  0.883  0.001  0.390
      -0.001 -0.272  0.001 -0.962 -0.000
     occupation matrix ns (before diag.):
       0.732  0.001  0.277 -0.209 -0.000
       0.001  0.342 -0.000 -0.000 -0.105
       0.277 -0.000  0.387 -0.057  0.000
      -0.209 -0.000 -0.057  0.475 -0.001
      -0.000 -0.105  0.000 -0.001  0.685

     Number of occupied Hubbard levels =    5.2430

     total cpu time spent up to now is      277.2 secs

     total energy              =    -520.61964560 Ry
     estimated scf accuracy    <       0.00105118 Ry

     iteration #  2     ecut=    60.00 Ry     beta= 0.70
     Davidson diagonalization with overlap
     ethr =  2.44E-06,  avg # of iterations =  4.4

     total cpu time spent up to now is      280.0 secs

     total energy              =    -520.61901613 Ry
     estimated scf accuracy    <       0.00805377 Ry

     iteration #  3     ecut=    60.00 Ry     beta= 0.70
     Davidson diagonalization with overlap
     ethr =  2.44E-06,  avg # of iterations =  2.7

     total cpu time spent up to now is      282.6 secs

     total energy              =    -520.61985940 Ry
     estimated scf accuracy    <       0.00118223 Ry

     iteration #  4     ecut=    60.00 Ry     beta= 0.70
     Davidson diagonalization with overlap
     ethr =  2.44E-06,  avg # of iterations =  2.0

     total cpu time spent up to now is      284.8 secs

     total energy              =    -520.62006759 Ry
     estimated scf accuracy    <       0.00015594 Ry

     iteration #  5     ecut=    60.00 Ry     beta= 0.70
     Davidson diagonalization with overlap
     ethr =  3.63E-07,  avg # of iterations =  5.0

     total cpu time spent up to now is      288.1 secs

     total energy              =    -520.62015953 Ry
     estimated scf accuracy    <       0.00012618 Ry

     iteration #  6     ecut=    60.00 Ry     beta= 0.70
     Davidson diagonalization with overlap
     ethr =  2.93E-07,  avg # of iterations =  1.1

     total cpu time spent up to now is      290.3 secs

     total energy              =    -520.62015978 Ry
     estimated scf accuracy    <       0.00005097 Ry

     iteration #  7     ecut=    60.00 Ry     beta= 0.70
     Davidson diagonalization with overlap
     ethr =  1.19E-07,  avg # of iterations =  2.0

     total cpu time spent up to now is      292.4 secs

     total energy              =    -520.62015935 Ry
     estimated scf accuracy    <       0.00001663 Ry

     iteration #  8     ecut=    60.00 Ry     beta= 0.70
     Davidson diagonalization with overlap
     ethr =  3.87E-08,  avg # of iterations =  3.0

     total cpu time spent up to now is      294.9 secs

     total energy              =    -520.62016293 Ry
     estimated scf accuracy    <       0.00000110 Ry

     iteration #  9     ecut=    60.00 Ry     beta= 0.70
     Davidson diagonalization with overlap
     c_bands:  4 eigenvalues not converged
     c_bands:  4 eigenvalues not converged
     c_bands:  3 eigenvalues not converged
     c_bands:  5 eigenvalues not converged
     c_bands:  1 eigenvalues not converged
     c_bands:  4 eigenvalues not converged
     c_bands:  1 eigenvalues not converged
     c_bands:  1 eigenvalues not converged
     c_bands:  2 eigenvalues not converged
     c_bands:  5 eigenvalues not converged
     c_bands:  1 eigenvalues not converged
     c_bands:  1 eigenvalues not converged
     ethr =  2.56E-09,  avg # of iterations = 18.4

     total cpu time spent up to now is      301.8 secs

     total energy              =    -520.62016819 Ry
     estimated scf accuracy    <       0.00000162 Ry

     iteration # 10     ecut=    60.00 Ry     beta= 0.70
     Davidson diagonalization with overlap
     ethr =  2.56E-09,  avg # of iterations =  2.0

     total cpu time spent up to now is      304.0 secs

     total energy              =    -520.62016810 Ry
     estimated scf accuracy    <       0.00000082 Ry

     iteration # 11     ecut=    60.00 Ry     beta= 0.70
     Davidson diagonalization with overlap
     ethr =  1.91E-09,  avg # of iterations =  5.9

     total cpu time spent up to now is      306.8 secs

     total energy              =    -520.62016863 Ry
     estimated scf accuracy    <       0.00000021 Ry

     iteration # 12     ecut=    60.00 Ry     beta= 0.70
     Davidson diagonalization with overlap
     ethr =  4.99E-10,  avg # of iterations =  6.2

     total cpu time spent up to now is      309.8 secs

     total energy              =    -520.62016802 Ry
     estimated scf accuracy    <       0.00000016 Ry

     iteration # 13     ecut=    60.00 Ry     beta= 0.70
     Davidson diagonalization with overlap
     ethr =  3.81E-10,  avg # of iterations =  7.4

     total cpu time spent up to now is      313.5 secs

     total energy              =    -520.62016891 Ry
     estimated scf accuracy    <       0.00000045 Ry

     iteration # 14     ecut=    60.00 Ry     beta= 0.70
     Davidson diagonalization with overlap
     ethr =  3.81E-10,  avg # of iterations =  4.9

     total cpu time spent up to now is      316.5 secs

     End of self-consistent calculation

     =================== HUBBARD OCCUPATIONS ===================
     ------------------------ ATOM    3 ------------------------
     Tr[ns(  3)] =   5.23466
     eigenvalues:
       0.218  0.313  0.399  0.713  0.975
     eigenvectors (columns):
      -0.534 -0.000  0.202  0.001 -0.821
       0.002 -0.964 -0.002  0.267 -0.001
       0.804  0.001  0.423 -0.001 -0.419
      -0.263 -0.002  0.883  0.001  0.388
      -0.002 -0.267  0.000 -0.964 -0.000
     occupation matrix ns (before diag.):
       0.736  0.001  0.275 -0.209 -0.000
       0.001  0.341 -0.000 -0.000 -0.103
       0.275 -0.000  0.383 -0.055  0.001
      -0.209 -0.000 -0.055  0.473 -0.001
      -0.000 -0.103  0.001 -0.001  0.684

     Number of occupied Hubbard levels =    5.2347

          k = 0.0000 0.0000 0.0000 (  3893 PWs)   bands (ev):

   -72.9054 -42.3270 -41.5555 -40.9442 -11.8883 -10.5681 -10.2833 -10.0444
     0.8103   1.5021   2.2219   2.6706   3.0628   3.8741   4.1614   4.3245
     4.6299   5.4190   5.5923   5.6442   6.0655   7.0917   7.9942  10.0512
    10.3346  11.7117

          k =-0.0001 0.0010 0.1876 (  3890 PWs)   bands (ev):

   -72.9054 -42.3271 -41.5556 -40.9442 -11.6904 -10.7186 -10.3611 -10.0817
     1.0006   1.7936   1.9872   3.0639   3.0672   3.8376   4.0354   4.4377
     4.6439   4.9502   5.5451   5.5632   5.7559   7.0496   8.0943   9.7637
    10.3791  12.8247

          k = 0.0001-0.0019-0.3751 (  3892 PWs)   bands (ev):

   -72.9053 -42.3271 -41.5556 -40.9442 -11.3528 -10.9982 -10.4366 -10.1335
     1.2411   1.8394   2.5357   3.0126   3.0594   3.4885   3.8353   4.5281
     4.5596   4.8390   5.4660   5.4775   5.6100   7.0066   8.1700   9.5321
    10.4241  14.4281

          k = 0.0001 0.1193-0.0961 (  3887 PWs)   bands (ev):

   -72.9054 -42.3270 -41.5555 -40.9442 -11.7847 -10.5961 -10.4144 -10.0303
     1.0308   1.5194   2.1864   2.7807   3.0996   3.8964   4.1310   4.2684
     4.7179   5.0067   5.4776   5.5960   6.0639   7.1141   7.9893  10.1127
    10.3782  12.5012

          k =-0.0000 0.1203 0.0914 (  3903 PWs)   bands (ev):

   -72.9054 -42.3271 -41.5555 -40.9442 -11.7329 -10.7994 -10.2585 -10.0351
     0.9480   1.7940   2.0864   2.8882   3.0286   3.8108   3.8758   4.4417
     4.6572   5.2161   5.5500   5.5729   5.8341   7.0861   8.0912   9.7606
    10.3346  12.4768

          k = 0.0002 0.1174-0.4712 (  3919 PWs)   bands (ev):

   -72.9054 -42.3272 -41.5556 -40.9443 -11.3980 -11.0811 -10.3385 -10.0766
     1.2964   1.6443   2.4438   3.0267   3.1478   3.5067   3.8613   4.3512
     4.5461   5.0909   5.4320   5.4604   5.6630   7.0423   8.1912   9.5269
    10.3797  13.8222

          k = 0.0001 0.1184-0.2837 (  3898 PWs)   bands (ev):

   -72.9053 -42.3271 -41.5556 -40.9442 -11.5396 -10.7957 -10.4881 -10.0704
     1.2241   1.7850   2.2289   2.9719   3.0987   3.8213   3.8570   4.3894
     4.5202   4.9157   5.4311   5.5103   5.7594   7.0750   8.1131   9.8417
    10.4224  14.0630

          k =-0.0001-0.2387 0.1922 (  3906 PWs)   bands (ev):

   -72.9054 -42.3270 -41.5556 -40.9442 -11.6531 -10.6898 -10.5039 -10.0192
     1.0160   1.8534   2.3979   2.8148   3.1392   3.6042   3.9233   4.2063
     4.5914   4.9975   5.4711   5.5468   6.0650   7.1369   7.9819  10.1784
    10.4212  13.8024

          k =-0.0002-0.2377 0.3798 (  3904 PWs)   bands (ev):

   -72.9054 -42.3271 -41.5556 -40.9442 -11.5951 -10.8683 -10.3781 -10.0271
     1.3317   1.7531   1.9914   2.9081   3.0607   3.7883   3.8992   4.3922
     4.7475   4.9132   5.4295   5.4977   5.7935   7.1099   8.1209   9.8434
    10.3781  13.3983

          k = 0.0000-0.2406-0.1829 (  3896 PWs)   bands (ev):

   -72.9054 -42.3272 -41.5555 -40.9442 -11.4356 -11.1536 -10.2470 -10.0310
     1.1621   1.7919   2.3205   2.9958   3.0373   3.6958   3.8895   4.1138
     4.5550   5.2008   5.4497   5.5618   5.7206   7.0764   8.1602   9.5048
    10.3351  13.7243

          k = 0.2487-0.0614-0.1388 (  3908 PWs)   bands (ev):

   -72.9027 -42.3242 -41.5501 -40.9818 -11.3356 -10.5944 -10.2127 -10.0422
     1.3879   1.6559   2.1301   2.4201   2.8002   3.0133   3.8086   4.0012
     4.2692   5.0136   5.3026   5.4936   6.1071   6.9544   8.0034   9.6746
    10.0829  13.9181

          k = 0.2486-0.0605 0.0488 (  3889 PWs)   bands (ev):

   -72.9027 -42.3242 -41.5501 -40.9818 -11.4360 -10.4701 -10.2536 -10.0093
     1.4076   1.8114   2.0340   2.4457   2.8216   2.8820   3.6969   3.9465
     4.2996   5.0050   5.3760   5.5630   6.0355   7.0482   7.9332   9.7387
    10.0562  13.5727

          k = 0.2488-0.0634-0.5139 (  3915 PWs)   bands (ev):

   -72.9027 -42.3242 -41.5502 -40.9818 -11.2406 -10.5617 -10.3506 -10.0570
     1.3108   1.6644   2.1997   2.5621   2.6813   3.0028   3.9650   4.0852
     4.4045   4.9364   5.0500   5.4658   6.1473   6.9516   7.9987   9.6239
    10.0061  14.6875

          k = 0.2487-0.0624-0.3264 (  3914 PWs)   bands (ev):

   -72.9027 -42.3242 -41.5502 -40.9818 -11.0499 -10.7786 -10.3044 -10.0938
     1.3138   1.6309   2.1044   2.4455   2.7361   3.3475   3.8978   4.1883
     4.3701   4.8801   5.0034   5.4539   6.1626   6.8725   8.0660   9.7823
     9.8389  15.0824

          k = 0.2487 0.0579-0.2349 (  3915 PWs)   bands (ev):

   -72.9027 -42.3242 -41.5502 -40.9818 -11.2431 -10.5606 -10.3484 -10.0573
     1.3093   1.6653   2.2009   2.5586   2.6812   3.0007   3.9633   4.0827
     4.4079   4.9440   5.0459   5.4682   6.1475   6.9527   7.9984   9.6224
    10.0064  14.6808

          k = 0.2487 0.0589-0.0473 (  3893 PWs)   bands (ev):

   -72.9027 -42.3242 -41.5501 -40.9818 -11.4376 -10.4701 -10.2516 -10.0093
     1.4072   1.8105   2.0350   2.4440   2.8144   2.8887   3.6959   3.9434
     4.3043   4.9985   5.3862   5.5635   6.0323   7.0487   7.9331   9.7382
    10.0569  13.5688

          k = 0.2489 0.0560-0.6100 (  3905 PWs)   bands (ev):

   -72.9027 -42.3242 -41.5501 -40.9818 -11.3350 -10.5933 -10.2140 -10.0429
     1.3865   1.6584   2.1290   2.4180   2.8083   3.0081   3.8087   4.0021
     4.2725   5.0093   5.2988   5.4950   6.1097   6.9551   8.0029   9.6730
    10.0820  13.9251

          k = 0.2488 0.0569-0.4225 (  3913 PWs)   bands (ev):

   -72.9027 -42.3242 -41.5502 -40.9818 -11.0495 -10.7772 -10.3057 -10.0946
     1.3137   1.6303   2.1025   2.4454   2.7371   3.3515   3.9023   4.1858
     4.3665   4.8762   5.0072   5.4550   6.1637   6.8733   8.0644   9.7806
     9.8376  15.0864

          k = 0.2485-0.3001 0.0534 (  3919 PWs)   bands (ev):

   -72.9027 -42.3242 -41.5502 -40.9818 -11.1716 -10.6566 -10.3501 -10.0425
     1.4599   1.8193   2.1163   2.4513   2.6877   3.1168   3.6826   4.0080
     4.3856   4.9114   5.1103   5.5247   6.1336   6.9632   8.0164   9.6284
    10.0886  14.6908

          k = 0.2484-0.2991 0.2410 (  3910 PWs)   bands (ev):

   -72.9027 -42.3242 -41.5502 -40.9818 -11.3070 -10.4864 -10.4017 -10.0080
     1.3787   1.9579   2.2628   2.5053   2.6661   2.8861   3.5290   3.9091
     4.4988   4.9286   5.1305   5.5829   6.0978   7.0714   7.9232   9.6787
    10.0477  14.4679

          k = 0.2487-0.3020-0.3217 (  3906 PWs)   bands (ev):

   -72.9027 -42.3242 -41.5501 -40.9818 -11.2840 -10.6550 -10.2275 -10.0295
     1.5983   1.7769   1.9152   2.5550   2.7974   3.0542   3.5551   3.8707
     4.1489   5.0693   5.3545   5.5593   6.0885   6.9608   8.0177   9.6938
    10.1653  13.8498

          k = 0.2486-0.3011-0.1341 (  3915 PWs)   bands (ev):

   -72.9027 -42.3242 -41.5502 -40.9818 -11.0621 -10.8887 -10.2032 -10.0586
     1.5594   1.6946   1.9534   2.5579   2.7791   3.0863   3.5170   4.1606
     4.2776   4.8619   5.3205   5.5154   6.1383   6.8675   8.0795   9.8764
     9.9293  14.6103

          k = 0.2486-0.1808-0.0427 (  3909 PWs)   bands (ev):

   -72.9027 -42.3242 -41.5501 -40.9818 -11.2820 -10.6558 -10.2294 -10.0293
     1.5978   1.7777   1.9130   2.5625   2.7981   3.0473   3.5556   3.8736
     4.1505   5.0736   5.3438   5.5631   6.0892   6.9603   8.0167   9.6948
    10.1637  13.8503

          k = 0.2485-0.1798 0.1449 (  3918 PWs)   bands (ev):

   -72.9027 -42.3242 -41.5502 -40.9818 -11.3049 -10.4870 -10.4037 -10.0080
     1.3777   1.9572   2.2666   2.5086   2.6686   2.8825   3.5275   3.9103
     4.4974   4.9245   5.1335   5.5820   6.0981   7.0708   7.9232   9.6782
    10.0481  14.4761

          k = 0.2487-0.1827-0.4178 (  3919 PWs)   bands (ev):

   -72.9027 -42.3242 -41.5502 -40.9818 -11.1721 -10.6583 -10.3486 -10.0418
     1.4607   1.8217   2.1149   2.4547   2.6811   3.1209   3.6761   4.0105
     4.3850   4.9150   5.1096   5.5219   6.1317   6.9623   8.0177   9.6304
    10.0906  14.6826

          k = 0.2487-0.1817-0.2302 (  3905 PWs)   bands (ev):

   -72.9027 -42.3242 -41.5501 -40.9818 -11.0622 -10.8901 -10.2019 -10.0581
     1.5602   1.6929   1.9563   2.5602   2.7765   3.0861   3.5115   4.1635
     4.2769   4.8600   5.3269   5.5127   6.1366   6.8665   8.0809   9.8770
     9.9318  14.6086

          k =-0.4973 0.1229 0.2776 (  3922 PWs)   bands (ev):

   -72.9004 -42.3213 -41.5448 -41.0191 -10.6735 -10.4425 -10.2529 -10.1329
     0.6967   1.2084   1.8439   2.2645   2.5835   3.5137   3.8725   4.2505
     4.5159   4.8050   4.8185   5.3102   5.9467   6.7816   7.9071   9.9703
    10.0851  15.3054

          k =-0.4974 0.1238 0.4651 (  3917 PWs)   bands (ev):

   -72.9004 -42.3213 -41.5448 -41.0191 -10.7205 -10.4572 -10.2408 -10.0898
     0.9071   1.2408   1.9650   2.3641   2.5914   3.4336   3.6719   4.2089
     4.3778   4.5388   4.9172   5.1561   5.9430   6.9550   7.8908   9.7815
    10.0428  15.8347

          k =-0.4972 0.1209-0.0975 (  3934 PWs)   bands (ev):

   -72.9004 -42.3213 -41.5448 -41.0191 -10.7600 -10.4752 -10.2259 -10.0536
     1.0879   1.3556   2.2082   2.4243   2.6578   3.0773   3.4024   4.1527
     4.3212   4.5046   4.8758   5.0450   5.9339   7.0861   7.8793   9.5641
    10.0568  16.0509

          k =-0.4973 0.2422 0.1815 (  3926 PWs)   bands (ev):

   -72.9004 -42.3213 -41.5448 -41.0191 -10.6735 -10.4423 -10.2525 -10.1334
     0.7593   1.1150   1.8484   2.2661   2.5569   3.6772   3.8434   4.1912
     4.5081   4.7808   4.8344   5.3030   5.9458   6.7850   7.9000   9.9885
    10.0565  15.6418

          k =-0.4973 0.2432 0.3690 (  3920 PWs)   bands (ev):

   -72.9004 -42.3213 -41.5448 -41.0191 -10.7212 -10.4608 -10.2366 -10.0895
     0.8966   1.2724   1.9652   2.2189   2.7923   3.3407   3.6724   4.1875
     4.3923   4.5384   4.9373   5.1582   5.9411   6.9605   7.8906   9.7663
    10.0584  15.6196

          k =-0.4971 0.2403-0.1936 (  3909 PWs)   bands (ev):

   -72.9004 -42.3213 -41.5448 -41.0191 -10.7627 -10.4714 -10.2306 -10.0499
     1.1053   1.3248   2.1653   2.5182   2.6918   2.9920   3.4596   4.1298
     4.2585   4.4972   4.8601   5.1026   5.9375   7.0929   7.8792   9.5721
    10.0480  16.0089

          k =-0.4972 0.2412-0.0061 (  3921 PWs)   bands (ev):

   -72.9004 -42.3213 -41.5448 -41.0191 -10.7201 -10.4585 -10.2390 -10.0906
     0.8950   1.2732   1.9601   2.2188   2.7906   3.3428   3.6737   4.1951
     4.3983   4.5356   4.9387   5.1545   5.9418   6.9584   7.8887   9.7689
    10.0576  15.6096

          k =-0.4975-0.1158 0.4698 (  3922 PWs)   bands (ev):

   -72.9004 -42.3213 -41.5448 -41.0191 -10.6739 -10.4406 -10.2546 -10.1325
     0.6987   1.2084   1.8401   2.2559   2.5733   3.5144   3.8858   4.2617
     4.5236   4.8011   4.8199   5.3073   5.9472   6.7807   7.9031   9.9678
    10.0851  15.2971

          k =-0.4975-0.1148 0.6574 (  3914 PWs)   bands (ev):

   -72.9004 -42.3213 -41.5448 -41.0191 -10.7220 -10.4578 -10.2401 -10.0881
     0.9113   1.2393   1.9631   2.3603   2.5841   3.4332   3.6737   4.2159
     4.3760   4.5441   4.9177   5.1561   5.9429   6.9562   7.8893   9.7783
    10.0433  15.8489

          k =-0.4973-0.1178 0.0947 (  3922 PWs)   bands (ev):

   -72.9004 -42.3213 -41.5448 -41.0191 -10.7623 -10.4779 -10.2230 -10.0512
     1.0952   1.3547   2.2059   2.4195   2.6527   3.0762   3.4048   4.1498
     4.3217   4.5056   4.8816   5.0444   5.9332   7.0896   7.8792   9.5572
    10.0579  16.0550

     the Fermi energy is     7.0219 ev

!    total energy              =    -520.62016924 Ry
     total all-electron energy =     -3720.873428 Ry
     estimated scf accuracy    <       0.00000001 Ry
     smearing contrib. (-TS)   =      -0.00510352 Ry
     internal energy E=F+TS    =    -520.61506572 Ry

     The total energy is F=E-TS. E is the sum of the following terms:
     one-electron contribution =    -240.21923031 Ry
     hartree contribution      =     145.16510157 Ry
     xc contribution           =     -61.24589721 Ry
     ewald contribution        =    -185.81876002 Ry
     Hubbard energy            =       0.24501394 Ry
     one-center paw contrib.   =    -178.74129370 Ry

     convergence has been achieved in  14 iterations
     force_hub    :     74.97s CPU     10.83s WALL (       5 calls)
     dndtau       :     66.22s CPU      9.56s WALL (    3780 calls)
     dprojdtau    :      9.34s CPU      1.50s WALL (    3780 calls)
     calc_doverla :     36.19s CPU      5.27s WALL (    3780 calls)
     matel_dSdtau :     48.89s CPU      6.88s WALL (    7560 calls)

     Forces acting on atoms (cartesian axes, Ry/au):

     atom    1 type  1   force =     0.00117741    0.00049575   -0.00517240
     atom    2 type  1   force =    -0.00003121    0.00327328    0.00230281
     atom    3 type  3   force =     0.00002051    0.00218492   -0.00276463
     atom    4 type  2   force =    -0.00054420   -0.00069891    0.00300237
     atom    5 type  2   force =     0.00018539   -0.00003774   -0.00340985
     atom    6 type  2   force =    -0.00002420   -0.00730380    0.00148491
     atom    7 type  2   force =    -0.00078370    0.00208650    0.00455679

     Total force =     0.012632     Total SCF correction =     0.000104


     Computing stress (Cartesian axis) and pressure

     stres_hub    :    209.97s CPU     27.30s WALL (       5 calls)
     dprojdepsilo :    171.22s CPU     22.32s WALL (    1620 calls)
     dprojdeps1   :     16.95s CPU      2.44s WALL (    1620 calls)
     dprojdeps2   :     94.50s CPU     12.55s WALL (    1620 calls)
     dprojdeps3   :     59.75s CPU      7.33s WALL (    1620 calls)
          total   stress  (Ry/bohr**3)                   (kbar)     P=       -1.47
  -0.00006541  -0.00000484   0.00000472           -9.62       -0.71        0.69
  -0.00000484   0.00001024   0.00002367           -0.71        1.51        3.48
   0.00000472   0.00002367   0.00002528            0.69        3.48        3.72

     Energy error            =      8.6E-04 Ry
     Gradient error          =      7.3E-03 Ry/Bohr
     Cell gradient error     =      9.6E+00 kbar

     number of scf cycles    =   5
     number of bfgs steps    =   4

     enthalpy           old  =    -520.6193129863 Ry
     enthalpy           new  =    -520.6201692370 Ry

     CASE: enthalpy          _new < enthalpy          _old

     new trust radius        =       0.0222164692 bohr
     new conv_thr            =       0.0000000730 Ry

     new unit-cell volume =    487.93265 a.u.^3 (    72.30416 Ang^3 )
     density =      3.84782 g/cm^3

CELL_PARAMETERS (angstrom)
   2.970639962  -0.001612715   0.001903670
   1.503519298   6.173901198  -0.025031433
   2.969737611   3.166266780   3.930381073

ATOMIC_POSITIONS (angstrom)
Mg               3.4454937024        4.7790049976        1.4563092936
Mg               3.4448889189        1.0973082435        0.3308705915
Mn               4.9309027345        2.3159075047        2.5278474968
O                3.4638516342        6.8805774618        1.7870979727
O                4.9303739749        4.2944487486        2.8641455355
O                3.4467546142        2.7879918948        1.3557682294
O                4.9473050749        8.3680611317        3.8642149325



     Writing config-only to output data dir .\out\\qgan.save\ :
     XML data file
     NEW-OLD atomic charge density approx. for the potential
     New effective cutoffs (rho, wfc):  496.12   61.96

     Check: negative core charge=   -0.000002

     Atomic wfc used for Hubbard projectors are orthogonalized


     total cpu time spent up to now is      327.4 secs

     Self-consistent Calculation

     iteration #  1     ecut=    60.00 Ry     beta= 0.70
     Davidson diagonalization with overlap
     ethr =  1.00E-06,  avg # of iterations =  9.1

     =================== HUBBARD OCCUPATIONS ===================
     ------------------------ ATOM    3 ------------------------
     Tr[ns(  3)] =   5.24044
     eigenvalues:
       0.220  0.312  0.399  0.714  0.975
     eigenvectors (columns):
       0.535 -0.000  0.202  0.001 -0.821
      -0.002  0.964 -0.002  0.265 -0.001
      -0.803 -0.001  0.424 -0.001 -0.419
       0.263  0.002  0.883  0.001  0.388
       0.002  0.265 -0.000 -0.964 -0.001
     occupation matrix ns (before diag.):
       0.736  0.001  0.275 -0.209 -0.000
       0.001  0.340  0.000 -0.000 -0.103
       0.275  0.000  0.385 -0.056  0.001
      -0.209 -0.000 -0.056  0.474 -0.001
      -0.000 -0.103  0.001 -0.001  0.686

     Number of occupied Hubbard levels =    5.2404

     total cpu time spent up to now is      333.0 secs

     total energy              =    -520.62032159 Ry
     estimated scf accuracy    <       0.00026603 Ry

     iteration #  2     ecut=    60.00 Ry     beta= 0.70
     Davidson diagonalization with overlap
     ethr =  6.19E-07,  avg # of iterations =  4.4

     total cpu time spent up to now is      335.9 secs

     total energy              =    -520.62011295 Ry
     estimated scf accuracy    <       0.00277226 Ry

     iteration #  3     ecut=    60.00 Ry     beta= 0.70
     Davidson diagonalization with overlap
     ethr =  6.19E-07,  avg # of iterations =  3.5

     total cpu time spent up to now is      338.7 secs

     total energy              =    -520.62038360 Ry
     estimated scf accuracy    <       0.00030957 Ry

     iteration #  4     ecut=    60.00 Ry     beta= 0.70
     Davidson diagonalization with overlap
     ethr =  6.19E-07,  avg # of iterations =  2.0

     total cpu time spent up to now is      341.0 secs

     total energy              =    -520.62044043 Ry
     estimated scf accuracy    <       0.00003197 Ry

     iteration #  5     ecut=    60.00 Ry     beta= 0.70
     Davidson diagonalization with overlap
     ethr =  7.44E-08,  avg # of iterations =  5.2

     total cpu time spent up to now is      344.7 secs

     total energy              =    -520.62046245 Ry
     estimated scf accuracy    <       0.00002821 Ry

     iteration #  6     ecut=    60.00 Ry     beta= 0.70
     Davidson diagonalization with overlap
     ethr =  6.56E-08,  avg # of iterations =  1.1

     total cpu time spent up to now is      347.4 secs

     total energy              =    -520.62046248 Ry
     estimated scf accuracy    <       0.00001138 Ry

     iteration #  7     ecut=    60.00 Ry     beta= 0.70
     Davidson diagonalization with overlap
     ethr =  2.65E-08,  avg # of iterations =  1.7

     total cpu time spent up to now is      349.7 secs

     total energy              =    -520.62046234 Ry
     estimated scf accuracy    <       0.00000387 Ry

     iteration #  8     ecut=    60.00 Ry     beta= 0.70
     Davidson diagonalization with overlap
     ethr =  9.00E-09,  avg # of iterations =  2.0

     total cpu time spent up to now is      352.2 secs

     total energy              =    -520.62046285 Ry
     estimated scf accuracy    <       0.00000039 Ry

     iteration #  9     ecut=    60.00 Ry     beta= 0.70
     Davidson diagonalization with overlap
     ethr =  9.14E-10,  avg # of iterations = 11.6

     total cpu time spent up to now is      357.2 secs

     total energy              =    -520.62046349 Ry
     estimated scf accuracy    <       0.00000017 Ry

     iteration # 10     ecut=    60.00 Ry     beta= 0.70
     Davidson diagonalization with overlap
     ethr =  4.07E-10,  avg # of iterations =  3.6

     total cpu time spent up to now is      360.1 secs

     total energy              =    -520.62046351 Ry
     estimated scf accuracy    <       0.00000010 Ry

     iteration # 11     ecut=    60.00 Ry     beta= 0.70
     Davidson diagonalization with overlap
     ethr =  2.26E-10,  avg # of iterations =  8.5

     total cpu time spent up to now is      364.7 secs

     End of self-consistent calculation

     =================== HUBBARD OCCUPATIONS ===================
     ------------------------ ATOM    3 ------------------------
     Tr[ns(  3)] =   5.23575
     eigenvalues:
       0.219  0.312  0.399  0.714  0.975
     eigenvectors (columns):
       0.535  0.000 -0.202  0.001 -0.820
      -0.001 -0.964  0.002  0.265 -0.002
      -0.803  0.001 -0.423 -0.001 -0.419
       0.262 -0.003 -0.883  0.001  0.389
       0.002 -0.265  0.000 -0.964 -0.001
     occupation matrix ns (before diag.):
       0.735  0.001  0.275 -0.209 -0.000
       0.001  0.340  0.000 -0.000 -0.103
       0.275  0.000  0.384 -0.056  0.001
      -0.209 -0.000 -0.056  0.473 -0.000
      -0.000 -0.103  0.001 -0.000  0.685

     Number of occupied Hubbard levels =    5.2357

          k = 0.0000 0.0000 0.0000 (  3893 PWs)   bands (ev):

   -72.9001 -42.3225 -41.5502 -40.9389 -11.8831 -10.5550 -10.2848 -10.0569
     0.8166   1.5021   2.2327   2.6804   3.0642   3.8899   4.1407   4.3385
     4.6310   5.4121   5.6005   5.6396   6.0572   7.1077   7.9943  10.0543
    10.3325  11.7149

          k =-0.0001 0.0008 0.1876 (  3890 PWs)   bands (ev):

   -72.9001 -42.3226 -41.5502 -40.9389 -11.6853 -10.7086 -10.3604 -10.0928
     1.0092   1.7962   1.9879   3.0661   3.0737   3.8523   4.0335   4.4512
     4.6302   4.9488   5.5499   5.5607   5.7527   7.0654   8.0942   9.7663
    10.3759  12.8293

          k = 0.0002-0.0016-0.3751 (  3892 PWs)   bands (ev):

   -72.9000 -42.3226 -41.5502 -40.9389 -11.3492 -10.9880 -10.4350 -10.1438
     1.2593   1.8331   2.5281   3.0132   3.0619   3.4921   3.8484   4.5408
     4.5569   4.8385   5.4647   5.4773   5.6121   7.0221   8.1721   9.5314
    10.4200  14.4329

          k = 0.0001 0.1193-0.0962 (  3887 PWs)   bands (ev):

   -72.9001 -42.3225 -41.5502 -40.9389 -11.7786 -10.5838 -10.4175 -10.0411
     1.0370   1.5203   2.1925   2.7890   3.1005   3.9113   4.1270   4.2839
     4.7060   5.0106   5.4741   5.5915   6.0593   7.1306   7.9882  10.1164
    10.3748  12.5055

          k = 0.0000 0.1201 0.0913 (  3903 PWs)   bands (ev):

   -72.9001 -42.3226 -41.5502 -40.9389 -11.7290 -10.7898 -10.2570 -10.0454
     0.9512   1.7998   2.0947   2.8912   3.0308   3.8110   3.8910   4.4555
     4.6457   5.2100   5.5457   5.5744   5.8295   7.1019   8.0912   9.7659
    10.3327  12.4803

          k = 0.0004 0.1177-0.4713 (  3919 PWs)   bands (ev):

   -72.9001 -42.3226 -41.5502 -40.9389 -11.3980 -11.0684 -10.3372 -10.0855
     1.3042   1.6504   2.4387   3.0294   3.1504   3.5109   3.8752   4.3460
     4.5597   5.0856   5.4294   5.4581   5.6627   7.0579   8.1917   9.5310
    10.3768  13.8323

          k = 0.0002 0.1185-0.2838 (  3898 PWs)   bands (ev):

   -72.9000 -42.3226 -41.5502 -40.9389 -11.5331 -10.7884 -10.4876 -10.0799
     1.2322   1.7886   2.2286   2.9715   3.1002   3.8269   3.8708   4.4044
     4.5152   4.9096   5.4300   5.5080   5.7586   7.0911   8.1132   9.8441
    10.4180  14.0703

          k =-0.0003-0.2387 0.1924 (  3906 PWs)   bands (ev):

   -72.9001 -42.3225 -41.5502 -40.9389 -11.6456 -10.6842 -10.5030 -10.0287
     1.0182   1.8611   2.4002   2.8219   3.1396   3.6035   3.9367   4.2240
     4.5864   4.9938   5.4662   5.5425   6.0624   7.1537   7.9801  10.1829
    10.4166  13.8116

          k =-0.0004-0.2379 0.3800 (  3904 PWs)   bands (ev):

   -72.9001 -42.3226 -41.5502 -40.9389 -11.5905 -10.8596 -10.3779 -10.0357
     1.3355   1.7552   1.9988   2.9108   3.0625   3.7950   3.9136   4.4074
     4.7435   4.8994   5.4250   5.4935   5.7939   7.1260   8.1206   9.8484
    10.3750  13.4037

          k =-0.0000-0.2402-0.1827 (  3896 PWs)   bands (ev):

   -72.9001 -42.3226 -41.5502 -40.9389 -11.4386 -11.1389 -10.2448 -10.0396
     1.1592   1.8132   2.3181   2.9987   3.0350   3.7030   3.9040   4.1094
     4.5693   5.1919   5.4453   5.5580   5.7155   7.0921   8.1600   9.5127
    10.3335  13.7389

          k = 0.2489-0.0612-0.1388 (  3908 PWs)   bands (ev):

   -72.8973 -42.3196 -41.5448 -40.9769 -11.3284 -10.5845 -10.2136 -10.0489
     1.3979   1.6635   2.1311   2.4277   2.7913   3.0143   3.8145   4.0056
     4.2708   5.0166   5.2943   5.4940   6.1060   6.9616   8.0073   9.6754
    10.0847  13.9248

          k = 0.2488-0.0604 0.0488 (  3889 PWs)   bands (ev):

   -72.8974 -42.3196 -41.5448 -40.9769 -11.4282 -10.4582 -10.2569 -10.0162
     1.4166   1.8141   2.0402   2.4484   2.8221   2.8776   3.7028   3.9535
     4.2980   5.0136   5.3756   5.5540   6.0340   7.0539   7.9370   9.7404
    10.0583  13.5770

          k = 0.2492-0.0628-0.5139 (  3915 PWs)   bands (ev):

   -72.8974 -42.3196 -41.5448 -40.9769 -11.2319 -10.5536 -10.3497 -10.0652
     1.3183   1.6735   2.2011   2.5610   2.6769   3.0069   3.9733   4.1003
     4.3996   4.9257   5.0538   5.4632   6.1462   6.9563   8.0025   9.6266
    10.0110  14.6956

          k = 0.2490-0.0620-0.3264 (  3914 PWs)   bands (ev):

   -72.8974 -42.3197 -41.5448 -40.9769 -11.0421 -10.7704 -10.3026 -10.1020
     1.3254   1.6403   2.1008   2.4461   2.7321   3.3563   3.9027   4.1922
     4.3756   4.8692   5.0024   5.4510   6.1639   6.8779   8.0697   9.7858
     9.8424  15.0939

          k = 0.2491 0.0581-0.2350 (  3915 PWs)   bands (ev):

   -72.8974 -42.3196 -41.5448 -40.9769 -11.2339 -10.5527 -10.3478 -10.0655
     1.3174   1.6745   2.2021   2.5576   2.6774   3.0050   3.9712   4.0985
     4.4025   4.9314   5.0506   5.4650   6.1466   6.9575   8.0020   9.6262
    10.0105  14.6901

          k = 0.2489 0.0589-0.0475 (  3893 PWs)   bands (ev):

   -72.8974 -42.3196 -41.5448 -40.9769 -11.4295 -10.4582 -10.2553 -10.0163
     1.4163   1.8134   2.0410   2.4470   2.8165   2.8829   3.7021   3.9509
     4.3018   5.0083   5.3833   5.5546   6.0315   7.0544   7.9370   9.7401
    10.0589  13.5738

          k = 0.2493 0.0566-0.6101 (  3905 PWs)   bands (ev):

   -72.8973 -42.3196 -41.5448 -40.9769 -11.3279 -10.5835 -10.2147 -10.0494
     1.3964   1.6654   2.1303   2.4257   2.7980   3.0103   3.8148   4.0068
     4.2732   5.0130   5.2916   5.4955   6.1080   6.9621   8.0070   9.6733
    10.0846  13.9305

          k = 0.2492 0.0574-0.4226 (  3913 PWs)   bands (ev):

   -72.8974 -42.3197 -41.5448 -40.9769 -11.0418 -10.7692 -10.3036 -10.1027
     1.3254   1.6396   2.0995   2.4459   2.7327   3.3597   3.9064   4.1903
     4.3721   4.8666   5.0053   5.4521   6.1649   6.8786   8.0684   9.7849
     9.8408  15.0971

          k = 0.2487-0.2998 0.0536 (  3919 PWs)   bands (ev):

   -72.8974 -42.3196 -41.5448 -40.9769 -11.1624 -10.6505 -10.3486 -10.0499
     1.4654   1.8318   2.1147   2.4584   2.6809   3.1197   3.6917   4.0168
     4.3823   4.9004   5.1122   5.5216   6.1347   6.9681   8.0190   9.6351
    10.0928  14.7002

          k = 0.2486-0.2990 0.2412 (  3910 PWs)   bands (ev):

   -72.8974 -42.3196 -41.5448 -40.9769 -11.2972 -10.4781 -10.4027 -10.0158
     1.3825   1.9684   2.2630   2.5056   2.6659   2.8916   3.5394   3.9168
     4.4922   4.9151   5.1430   5.5783   6.0971   7.0753   7.9257   9.6837
    10.0536  14.4774

          k = 0.2489-0.3014-0.3215 (  3906 PWs)   bands (ev):

   -72.8973 -42.3196 -41.5448 -40.9769 -11.2769 -10.6458 -10.2279 -10.0359
     1.6047   1.7799   1.9271   2.5607   2.7930   3.0544   3.5568   3.8777
     4.1456   5.0710   5.3489   5.5578   6.0900   6.9676   8.0207   9.6968
    10.1678  13.8555

          k = 0.2488-0.3006-0.1339 (  3915 PWs)   bands (ev):

   -72.8973 -42.3197 -41.5448 -40.9769 -11.0601 -10.8757 -10.2023 -10.0647
     1.5642   1.7052   1.9646   2.5615   2.7679   3.0946   3.5125   4.1630
     4.2812   4.8571   5.3131   5.5207   6.1391   6.8749   8.0830   9.8814
     9.9295  14.6206

          k = 0.2488-0.1805-0.0426 (  3909 PWs)   bands (ev):

   -72.8973 -42.3196 -41.5448 -40.9769 -11.2752 -10.6466 -10.2294 -10.0357
     1.6046   1.7806   1.9253   2.5673   2.7927   3.0484   3.5570   3.8797
     4.1474   5.0745   5.3404   5.5605   6.0908   6.9671   8.0197   9.6983
    10.1658  13.8559

          k = 0.2487-0.1797 0.1450 (  3918 PWs)   bands (ev):

   -72.8974 -42.3196 -41.5448 -40.9769 -11.2954 -10.4788 -10.4042 -10.0158
     1.3817   1.9677   2.2660   2.5092   2.6670   2.8889   3.5378   3.9178
     4.4909   4.9122   5.1458   5.5774   6.0974   7.0746   7.9257   9.6832
    10.0539  14.4841

          k = 0.2490-0.1821-0.4177 (  3919 PWs)   bands (ev):

   -72.8974 -42.3196 -41.5448 -40.9769 -11.1628 -10.6517 -10.3474 -10.0493
     1.4658   1.8335   2.1136   2.4613   2.6757   3.1233   3.6861   4.0195
     4.3817   4.9032   5.1116   5.5194   6.1329   6.9670   8.0202   9.6360
    10.0952  14.6936

          k = 0.2489-0.1813-0.2301 (  3905 PWs)   bands (ev):

   -72.8973 -42.3197 -41.5448 -40.9769 -11.0602 -10.8769 -10.2012 -10.0643
     1.5650   1.7037   1.9670   2.5636   2.7661   3.0941   3.5079   4.1652
     4.2808   4.8554   5.3182   5.5185   6.1377   6.8741   8.0841   9.8814
     9.9320  14.6194

          k =-0.4979 0.1224 0.2776 (  3922 PWs)   bands (ev):

   -72.8951 -42.3167 -41.5393 -41.0145 -10.6496 -10.4424 -10.2670 -10.1280
     0.7027   1.2094   1.8442   2.2714   2.5894   3.5075   3.8822   4.2520
     4.5253   4.7828   4.8086   5.3211   5.9543   6.7832   7.9122   9.9748
    10.0870  15.3063

          k =-0.4980 0.1232 0.4651 (  3917 PWs)   bands (ev):

   -72.8951 -42.3167 -41.5393 -41.0145 -10.6973 -10.4577 -10.2540 -10.0845
     0.9115   1.2367   1.9693   2.3711   2.5983   3.4303   3.6768   4.2131
     4.3825   4.5257   4.9127   5.1594   5.9506   6.9560   7.8966   9.7843
    10.0476  15.8396

          k =-0.4976 0.1208-0.0975 (  3934 PWs)   bands (ev):

   -72.8950 -42.3167 -41.5394 -41.0145 -10.7368 -10.4766 -10.2383 -10.0481
     1.0857   1.3526   2.2125   2.4331   2.6616   3.0873   3.4034   4.1467
     4.3296   4.4941   4.8838   5.0387   5.9413   7.0868   7.8854   9.5676
    10.0616  16.0729

          k =-0.4977 0.2417 0.1814 (  3926 PWs)   bands (ev):

   -72.8951 -42.3167 -41.5394 -41.0145 -10.6496 -10.4423 -10.2666 -10.1285
     0.7666   1.1140   1.8505   2.2688   2.5685   3.6663   3.8544   4.1899
     4.5180   4.7654   4.8204   5.3140   5.9533   6.7866   7.9055   9.9907
    10.0605  15.6332

          k =-0.4978 0.2425 0.3689 (  3920 PWs)   bands (ev):

   -72.8951 -42.3167 -41.5393 -41.0145 -10.6977 -10.4613 -10.2500 -10.0843
     0.8989   1.2713   1.9669   2.2269   2.7998   3.3414   3.6754   4.1913
     4.3959   4.5255   4.9302   5.1637   5.9487   6.9615   7.8963   9.7705
    10.0621  15.6255

          k =-0.4975 0.2401-0.1937 (  3909 PWs)   bands (ev):

   -72.8950 -42.3167 -41.5393 -41.0145 -10.7396 -10.4720 -10.2433 -10.0448
     1.1029   1.3207   2.1749   2.5241   2.6970   2.9944   3.4676   4.1259
     4.2614   4.4873   4.8668   5.0986   5.9451   7.0931   7.8854   9.5758
    10.0532  16.0269

          k =-0.4976 0.2409-0.0062 (  3921 PWs)   bands (ev):

   -72.8951 -42.3167 -41.5394 -41.0145 -10.6967 -10.4594 -10.2520 -10.0853
     0.8977   1.2718   1.9624   2.2268   2.7984   3.3430   3.6767   4.1974
     4.4008   4.5237   4.9313   5.1607   5.9493   6.9597   7.8948   9.7723
    10.0618  15.6169

          k =-0.4981-0.1163 0.4700 (  3922 PWs)   bands (ev):

   -72.8951 -42.3167 -41.5393 -41.0145 -10.6500 -10.4408 -10.2684 -10.1276
     0.7045   1.2093   1.8411   2.2642   2.5809   3.5084   3.8934   4.2607
     4.5319   4.7801   4.8095   5.3187   5.9547   6.7827   7.9090   9.9719
    10.0877  15.2987

          k =-0.4982-0.1155 0.6576 (  3914 PWs)   bands (ev):

   -72.8951 -42.3167 -41.5393 -41.0145 -10.6985 -10.4582 -10.2534 -10.0831
     0.9150   1.2354   1.9680   2.3679   2.5918   3.4301   3.6786   4.2181
     4.3812   4.5305   4.9132   5.1595   5.9504   6.9571   7.8953   9.7815
    10.0480  15.8510

          k =-0.4979-0.1179 0.0949 (  3922 PWs)   bands (ev):

   -72.8950 -42.3167 -41.5394 -41.0145 -10.7388 -10.4787 -10.2360 -10.0460
     1.0916   1.3521   2.2111   2.4289   2.6571   3.0866   3.4052   4.1442
     4.3303   4.4945   4.8888   5.0383   5.9407   7.0898   7.8853   9.5621
    10.0623  16.0756

     the Fermi energy is     7.0287 ev

!    total energy              =    -520.62046358 Ry
     total all-electron energy =     -3720.873722 Ry
     estimated scf accuracy    <          7.3E-09 Ry
     smearing contrib. (-TS)   =      -0.00503357 Ry
     internal energy E=F+TS    =    -520.61543002 Ry

     The total energy is F=E-TS. E is the sum of the following terms:
     one-electron contribution =    -240.12911709 Ry
     hartree contribution      =     145.12443408 Ry
     xc contribution           =     -61.24582646 Ry
     ewald contribution        =    -185.86866537 Ry
     Hubbard energy            =       0.24481290 Ry
     one-center paw contrib.   =    -178.74106807 Ry

     convergence has been achieved in  11 iterations
     force_hub    :     91.45s CPU     13.10s WALL (       6 calls)
     dndtau       :     80.53s CPU     11.59s WALL (    4536 calls)
     dprojdtau    :     11.94s CPU      1.84s WALL (    4536 calls)
     calc_doverla :     43.69s CPU      6.36s WALL (    4536 calls)
     matel_dSdtau :     59.16s CPU      8.32s WALL (    9072 calls)

     Forces acting on atoms (cartesian axes, Ry/au):

     atom    1 type  1   force =     0.00101036    0.00210325   -0.00373623
     atom    2 type  1   force =     0.00008066    0.00080605    0.00440845
     atom    3 type  3   force =    -0.00009149   -0.00047309   -0.00283536
     atom    4 type  2   force =    -0.00050884    0.00069912    0.00238163
     atom    5 type  2   force =     0.00014521   -0.00087528   -0.00426476
     atom    6 type  2   force =     0.00004456   -0.00397463    0.00140344
     atom    7 type  2   force =    -0.00068046    0.00171457    0.00264283

     Total force =     0.010066     Total SCF correction =     0.000053


     Computing stress (Cartesian axis) and pressure

     stres_hub    :    245.28s CPU     34.74s WALL (       6 calls)
     dprojdepsilo :    202.22s CPU     28.65s WALL (    1944 calls)
     dprojdeps1   :     20.06s CPU      3.01s WALL (    1944 calls)
     dprojdeps2   :    113.84s CPU     16.19s WALL (    1944 calls)
     dprojdeps3   :     68.28s CPU      9.44s WALL (    1944 calls)
          total   stress  (Ry/bohr**3)                   (kbar)     P=       -1.50
  -0.00005182  -0.00000388   0.00000389           -7.62       -0.57        0.57
  -0.00000388  -0.00000179   0.00001274           -0.57       -0.26        1.87
   0.00000389   0.00001274   0.00002310            0.57        1.87        3.40

     Energy error            =      2.9E-04 Ry
     Gradient error          =      4.4E-03 Ry/Bohr
     Cell gradient error     =      7.6E+00 kbar

     number of scf cycles    =   6
     number of bfgs steps    =   5

     enthalpy           old  =    -520.6201692370 Ry
     enthalpy           new  =    -520.6204635833 Ry

     CASE: enthalpy          _new < enthalpy          _old

     new trust radius        =       0.0208263274 bohr
     new conv_thr            =       0.0000000294 Ry

     new unit-cell volume =    487.74955 a.u.^3 (    72.27703 Ang^3 )
     density =      3.84926 g/cm^3

CELL_PARAMETERS (angstrom)
   2.964324128  -0.002555112   0.002853898
   1.498296987   6.178661549  -0.017305356
   2.963695732   3.172689494   3.938605929

ATOMIC_POSITIONS (angstrom)
Mg               3.4394538984        4.7798420239        1.4542914999
Mg               3.4370973334        1.1036295589        0.3305261325
Mn               4.9201788252        2.3183786257        2.5345965002
O                3.4536793785        6.8880843776        1.8064592846
O                4.9200216529        4.3000972788        2.8682943122
O                3.4392485649        2.7837412324        1.3625190017
O                4.9338018652        8.3833196068        3.8874556320



     Writing config-only to output data dir .\out\\qgan.save\ :
     XML data file
     NEW-OLD atomic charge density approx. for the potential
     New effective cutoffs (rho, wfc):  494.29   61.76

     Check: negative core charge=   -0.000002

     Atomic wfc used for Hubbard projectors are orthogonalized


     total cpu time spent up to now is      377.5 secs

     Self-consistent Calculation

     iteration #  1     ecut=    60.00 Ry     beta= 0.70
     Davidson diagonalization with overlap
     ethr =  1.00E-06,  avg # of iterations = 11.2

     =================== HUBBARD OCCUPATIONS ===================
     ------------------------ ATOM    3 ------------------------
     Tr[ns(  3)] =   5.23950
     eigenvalues:
       0.220  0.311  0.399  0.714  0.976
     eigenvectors (columns):
       0.536 -0.001 -0.203  0.001  0.820
      -0.001  0.965  0.002  0.263  0.002
      -0.803 -0.001 -0.423 -0.001  0.420
       0.261  0.003 -0.883  0.000 -0.389
       0.002  0.263  0.001 -0.965  0.001
     occupation matrix ns (before diag.):
       0.735  0.001  0.276 -0.209 -0.000
       0.001  0.339  0.000 -0.001 -0.102
       0.276  0.000  0.385 -0.057  0.001
      -0.209 -0.001 -0.057  0.474 -0.000
      -0.000 -0.102  0.001 -0.000  0.686

     Number of occupied Hubbard levels =    5.2395

     total cpu time spent up to now is      384.3 secs

     total energy              =    -520.62056427 Ry
     estimated scf accuracy    <       0.00020666 Ry

     iteration #  2     ecut=    60.00 Ry     beta= 0.70
     Davidson diagonalization with overlap
     ethr =  4.81E-07,  avg # of iterations =  4.1

     total cpu time spent up to now is      387.4 secs

     total energy              =    -520.62043840 Ry
     estimated scf accuracy    <       0.00155223 Ry

     iteration #  3     ecut=    60.00 Ry     beta= 0.70
     Davidson diagonalization with overlap
     ethr =  4.81E-07,  avg # of iterations =  2.4

     total cpu time spent up to now is      390.0 secs

     total energy              =    -520.62059743 Ry
     estimated scf accuracy    <       0.00026198 Ry

     iteration #  4     ecut=    60.00 Ry     beta= 0.70
     Davidson diagonalization with overlap
     ethr =  4.81E-07,  avg # of iterations =  2.0

     total cpu time spent up to now is      393.0 secs

     total energy              =    -520.62064685 Ry
     estimated scf accuracy    <       0.00004999 Ry

     iteration #  5     ecut=    60.00 Ry     beta= 0.70
     Davidson diagonalization with overlap
     ethr =  1.16E-07,  avg # of iterations =  4.7

     total cpu time spent up to now is      396.1 secs

     total energy              =    -520.62066409 Ry
     estimated scf accuracy    <       0.00001902 Ry

     iteration #  6     ecut=    60.00 Ry     beta= 0.70
     Davidson diagonalization with overlap
     ethr =  4.42E-08,  avg # of iterations =  1.6

     total cpu time spent up to now is      398.6 secs

     total energy              =    -520.62066471 Ry
     estimated scf accuracy    <       0.00000760 Ry

     iteration #  7     ecut=    60.00 Ry     beta= 0.70
     Davidson diagonalization with overlap
     ethr =  1.77E-08,  avg # of iterations =  2.1

     total cpu time spent up to now is      401.0 secs

     total energy              =    -520.62066506 Ry
     estimated scf accuracy    <       0.00000192 Ry

     iteration #  8     ecut=    60.00 Ry     beta= 0.70
     Davidson diagonalization with overlap
     ethr =  4.47E-09,  avg # of iterations =  6.2

     total cpu time spent up to now is      403.9 secs

     total energy              =    -520.62066618 Ry
     estimated scf accuracy    <       0.00000016 Ry

     iteration #  9     ecut=    60.00 Ry     beta= 0.70
     Davidson diagonalization with overlap
     c_bands:  2 eigenvalues not converged
     c_bands:  1 eigenvalues not converged
     c_bands:  1 eigenvalues not converged
     c_bands:  1 eigenvalues not converged
     ethr =  3.72E-10,  avg # of iterations = 16.6

     total cpu time spent up to now is      410.3 secs

     total energy              =    -520.62066670 Ry
     estimated scf accuracy    <       0.00000022 Ry

     iteration # 10     ecut=    60.00 Ry     beta= 0.70
     Davidson diagonalization with overlap
     ethr =  3.72E-10,  avg # of iterations =  2.1

     total cpu time spent up to now is      412.5 secs

     total energy              =    -520.62066674 Ry
     estimated scf accuracy    <       0.00000010 Ry

     iteration # 11     ecut=    60.00 Ry     beta= 0.70
     Davidson diagonalization with overlap
     ethr =  2.38E-10,  avg # of iterations =  2.2

     total cpu time spent up to now is      414.9 secs

     total energy              =    -520.62066673 Ry
     estimated scf accuracy    <       0.00000004 Ry

     iteration # 12     ecut=    60.00 Ry     beta= 0.70
     Davidson diagonalization with overlap
     ethr =  9.39E-11,  avg # of iterations =  9.4

     total cpu time spent up to now is      418.5 secs

     End of self-consistent calculation

     =================== HUBBARD OCCUPATIONS ===================
     ------------------------ ATOM    3 ------------------------
     Tr[ns(  3)] =   5.23674
     eigenvalues:
       0.219  0.311  0.398  0.714  0.975
     eigenvectors (columns):
       0.538 -0.001 -0.204  0.001  0.818
      -0.001  0.964  0.002  0.264  0.002
      -0.802 -0.001 -0.422 -0.001  0.422
       0.259  0.003 -0.883 -0.000 -0.391
       0.001  0.264  0.001 -0.964  0.001
     occupation matrix ns (before diag.):
       0.733  0.001  0.277 -0.209  0.000
       0.001  0.340  0.000 -0.001 -0.103
       0.277  0.000  0.386 -0.058  0.001
      -0.209 -0.001 -0.058  0.475 -0.000
       0.000 -0.103  0.001 -0.000  0.686

     Number of occupied Hubbard levels =    5.2367

          k = 0.0000 0.0000 0.0000 (  3893 PWs)   bands (ev):

   -72.8910 -42.3163 -41.5395 -40.9294 -11.8793 -10.5475 -10.2826 -10.0636
     0.8204   1.5006   2.2365   2.6956   3.0685   3.9157   4.1151   4.3602
     4.6286   5.4087   5.6165   5.6539   6.0546   7.1301   7.9990  10.0647
    10.3386  11.7233

          k =-0.0002 0.0006 0.1874 (  3890 PWs)   bands (ev):

   -72.8910 -42.3163 -41.5395 -40.9294 -11.6828 -10.7031 -10.3534 -10.1006
     1.0147   1.7971   1.9862   3.0706   3.0807   3.8772   4.0293   4.4719
     4.6086   4.9527   5.5617   5.5779   5.7575   7.0874   8.0991   9.7763
    10.3810  12.8387

          k = 0.0004-0.0011-0.3748 (  3892 PWs)   bands (ev):

   -72.8909 -42.3164 -41.5396 -40.9294 -11.3526 -10.9780 -10.4251 -10.1528
     1.2737   1.8251   2.5156   3.0144   3.0670   3.4962   3.8712   4.5484
     4.5631   4.8385   5.4690   5.4976   5.6237   7.0440   8.1795   9.5376
    10.4241  14.4445

          k = 0.0002 0.1193-0.0963 (  3887 PWs)   bands (ev):

   -72.8910 -42.3163 -41.5395 -40.9294 -11.7746 -10.5762 -10.4170 -10.0465
     1.0411   1.5185   2.1949   2.7993   3.1039   3.9369   4.1178   4.3067
     4.6923   5.0180   5.4769   5.6060   6.0611   7.1536   7.9918  10.1277
    10.3794  12.5145

          k = 0.0000 0.1199 0.0911 (  3903 PWs)   bands (ev):

   -72.8910 -42.3163 -41.5395 -40.9294 -11.7267 -10.7856 -10.2479 -10.0537
     0.9522   1.8020   2.0993   2.8964   3.0359   3.8100   3.9162   4.4765
     4.6294   5.2095   5.5605   5.5806   5.8314   7.1241   8.0959   9.7784
    10.3393  12.4886

          k = 0.0006 0.1182-0.4710 (  3919 PWs)   bands (ev):

   -72.8909 -42.3164 -41.5395 -40.9294 -11.4014 -11.0593 -10.3268 -10.0939
     1.3090   1.6536   2.4278   3.0350   3.1568   3.5138   3.8986   4.3413
     4.5802   5.0793   5.4315   5.4758   5.6710   7.0800   8.1972   9.5424
    10.3823  13.8486

          k = 0.0004 0.1188-0.2837 (  3898 PWs)   bands (ev):

   -72.8909 -42.3163 -41.5396 -40.9294 -11.5306 -10.7833 -10.4822 -10.0856
     1.2373   1.7903   2.2238   2.9725   3.1040   3.8324   3.8950   4.4264
     4.5069   4.9036   5.4348   5.5253   5.7663   7.1138   8.1185   9.8537
    10.4216  14.0826

          k =-0.0004-0.2387 0.1926 (  3906 PWs)   bands (ev):

   -72.8909 -42.3163 -41.5396 -40.9294 -11.6412 -10.6775 -10.5030 -10.0329
     1.0194   1.8621   2.4001   2.8304   3.1419   3.6049   3.9618   4.2482
     4.5769   4.9922   5.4668   5.5574   6.0661   7.1773   7.9831  10.1952
    10.4197  13.8261

          k =-0.0006-0.2381 0.3799 (  3904 PWs)   bands (ev):

   -72.8909 -42.3163 -41.5395 -40.9294 -11.5882 -10.8559 -10.3708 -10.0415
     1.3366   1.7548   2.0018   2.9140   3.0670   3.8014   3.9382   4.4296
     4.7424   4.8835   5.4250   5.5087   5.8014   7.1488   8.1252   9.8606
    10.3801  13.4140

          k =-0.0000-0.2398-0.1822 (  3896 PWs)   bands (ev):

   -72.8910 -42.3164 -41.5395 -40.9294 -11.4423 -11.1304 -10.2329 -10.0487
     1.1555   1.8277   2.3108   3.0047   3.0355   3.7120   3.9280   4.1058
     4.5906   5.1828   5.4602   5.5559   5.7196   7.1143   8.1647   9.5277
    10.3405  13.7585

          k = 0.2495-0.0609-0.1387 (  3908 PWs)   bands (ev):

   -72.8881 -42.3133 -41.5340 -40.9681 -11.3225 -10.5773 -10.2127 -10.0461
     1.4068   1.6738   2.1297   2.4343   2.7799   3.0199   3.8287   4.0091
     4.2786   5.0165   5.2908   5.5033   6.1115   6.9743   8.0175   9.6845
    10.0948  13.9343

          k = 0.2493-0.0603 0.0487 (  3889 PWs)   bands (ev):

   -72.8881 -42.3133 -41.5340 -40.9682 -11.4212 -10.4496 -10.2591 -10.0130
     1.4250   1.8146   2.0493   2.4471   2.8270   2.8701   3.7106   3.9745
     4.2949   5.0262   5.3767   5.5530   6.0387   7.0649   7.9466   9.7503
    10.0696  13.5848

          k = 0.2498-0.0620-0.5135 (  3915 PWs)   bands (ev):

   -72.8881 -42.3133 -41.5340 -40.9682 -11.2264 -10.5464 -10.3452 -10.0654
     1.3264   1.6836   2.1987   2.5579   2.6759   3.0128   3.9896   4.1198
     4.3919   4.9184   5.0585   5.4688   6.1532   6.9657   8.0125   9.6378
    10.0247  14.7071

          k = 0.2497-0.0615-0.3261 (  3914 PWs)   bands (ev):

   -72.8881 -42.3133 -41.5340 -40.9681 -11.0414 -10.7593 -10.2957 -10.1038
     1.3380   1.6511   2.0935   2.4465   2.7339   3.3615   3.9125   4.2008
     4.3832   4.8579   5.0041   5.4555   6.1740   6.8882   8.0798   9.7975
     9.8543  15.1052

          k = 0.2497 0.0585-0.2350 (  3915 PWs)   bands (ev):

   -72.8881 -42.3133 -41.5340 -40.9682 -11.2278 -10.5460 -10.3438 -10.0657
     1.3260   1.6845   2.1993   2.5554   2.6766   3.0114   3.9870   4.1190
     4.3943   4.9217   5.0562   5.4699   6.1537   6.9670   8.0121   9.6387
    10.0230  14.7032

          k = 0.2495 0.0590-0.0476 (  3893 PWs)   bands (ev):

   -72.8881 -42.3133 -41.5340 -40.9682 -11.4221 -10.4495 -10.2580 -10.0130
     1.4248   1.8140   2.0498   2.4459   2.8227   2.8745   3.7101   3.9726
     4.2978   5.0223   5.3815   5.5536   6.0371   7.0655   7.9466   9.7502
    10.0699  13.5825

          k = 0.2500 0.0573-0.6097 (  3905 PWs)   bands (ev):

   -72.8881 -42.3133 -41.5340 -40.9681 -11.3224 -10.5764 -10.2136 -10.0464
     1.4054   1.6750   2.1292   2.4326   2.7847   3.0171   3.8294   4.0104
     4.2799   5.0140   5.2893   5.5047   6.1126   6.9746   8.0172   9.6819
    10.0958  13.9383

          k = 0.2499 0.0579-0.4223 (  3913 PWs)   bands (ev):

   -72.8881 -42.3133 -41.5340 -40.9681 -11.0413 -10.7584 -10.2964 -10.1043
     1.3380   1.6506   2.0929   2.4459   2.7343   3.3642   3.9151   4.1997
     4.3799   4.8568   5.0059   5.4564   6.1748   6.8888   8.0788   9.7977
     9.8523  15.1074

          k = 0.2491-0.2996 0.0539 (  3919 PWs)   bands (ev):

   -72.8881 -42.3133 -41.5340 -40.9682 -11.1565 -10.6454 -10.3426 -10.0500
     1.4722   1.8443   2.1089   2.4666   2.6762   3.1234   3.7050   4.0310
     4.3788   4.8935   5.1150   5.5258   6.1448   6.9772   8.0275   9.6509
    10.1054  14.7120

          k = 0.2489-0.2990 0.2413 (  3910 PWs)   bands (ev):

   -72.8881 -42.3133 -41.5340 -40.9682 -11.2893 -10.4721 -10.4002 -10.0155
     1.3875   1.9741   2.2610   2.5093   2.6660   2.8972   3.5531   3.9358
     4.4819   4.9065   5.1572   5.5818   6.1049   7.0832   7.9337   9.6973
    10.0689  14.4910

          k = 0.2495-0.3007-0.3209 (  3906 PWs)   bands (ev):

   -72.8881 -42.3133 -41.5340 -40.9681 -11.2710 -10.6400 -10.2247 -10.0340
     1.6119   1.7828   1.9383   2.5612   2.7912   3.0557   3.5652   3.8860
     4.1482   5.0736   5.3454   5.5646   6.0988   6.9795   8.0293   9.7084
    10.1789  13.8637

          k = 0.2493-0.3001-0.1335 (  3915 PWs)   bands (ev):

   -72.8881 -42.3134 -41.5340 -40.9681 -11.0611 -10.8640 -10.1967 -10.0640
     1.5704   1.7181   1.9723   2.5638   2.7584   3.1046   3.5121   4.1700
     4.2887   4.8483   5.3101   5.5344   6.1472   6.8875   8.0928   9.8946
     9.9379  14.6282

          k = 0.2493-0.1802-0.0424 (  3909 PWs)   bands (ev):

   -72.8881 -42.3133 -41.5340 -40.9681 -11.2697 -10.6407 -10.2256 -10.0340
     1.6121   1.7835   1.9371   2.5664   2.7904   3.0513   3.5651   3.8874
     4.1498   5.0758   5.3396   5.5661   6.0999   6.9790   8.0286   9.7106
    10.1763  13.8639

          k = 0.2491-0.1797 0.1450 (  3918 PWs)   bands (ev):

   -72.8881 -42.3133 -41.5340 -40.9682 -11.2880 -10.4728 -10.4010 -10.0155
     1.3868   1.9735   2.2631   2.5127   2.6660   2.8954   3.5516   3.9366
     4.4807   4.9049   5.1595   5.5810   6.1050   7.0824   7.9337   9.6969
    10.0692  14.4958

          k = 0.2496-0.1814-0.4172 (  3919 PWs)   bands (ev):

   -72.8881 -42.3133 -41.5340 -40.9682 -11.1569 -10.6461 -10.3418 -10.0495
     1.4722   1.8453   2.1079   2.4689   2.6727   3.1263   3.7006   4.0337
     4.3784   4.8952   5.1148   5.5244   6.1430   6.9763   8.0285   9.6505
    10.1085  14.7073

          k = 0.2495-0.1808-0.2298 (  3905 PWs)   bands (ev):

   -72.8881 -42.3134 -41.5340 -40.9681 -11.0611 -10.8649 -10.1959 -10.0638
     1.5711   1.7170   1.9738   2.5658   2.7572   3.1039   3.5089   4.1714
     4.2890   4.8468   5.3136   5.5328   6.1460   6.8869   8.0937   9.8938
     9.9407  14.6275

          k =-0.4990 0.1218 0.2774 (  3922 PWs)   bands (ev):

   -72.8858 -42.3103 -41.5284 -41.0066 -10.6337 -10.4360 -10.2843 -10.1056
     0.7105   1.2119   1.8427   2.2771   2.5963   3.4990   3.8906   4.2589
     4.5406   4.7613   4.8027   5.3315   5.9719   6.7916   7.9235   9.9875
    10.0973  15.3060

          k =-0.4991 0.1223 0.4647 (  3917 PWs)   bands (ev):

   -72.8858 -42.3103 -41.5284 -41.0066 -10.6797 -10.4530 -10.2696 -10.0637
     0.9162   1.2332   1.9711   2.3792   2.6043   3.4259   3.6800   4.2213
     4.3936   4.5174   4.9107   5.1643   5.9683   6.9619   7.9083   9.7957
    10.0615  15.8425

          k =-0.4986 0.1206-0.0974 (  3934 PWs)   bands (ev):

   -72.8857 -42.3103 -41.5285 -41.0066 -10.7178 -10.4733 -10.2530 -10.0282
     1.0828   1.3484   2.2113   2.4440   2.6650   3.0996   3.4037   4.1431
     4.3457   4.4901   4.8937   5.0339   5.9590   7.0915   7.8972   9.5803
    10.0761  16.0887

          k =-0.4988 0.2411 0.1811 (  3926 PWs)   bands (ev):

   -72.8858 -42.3103 -41.5284 -41.0066 -10.6336 -10.4361 -10.2840 -10.1058
     0.7758   1.1144   1.8502   2.2731   2.5793   3.6540   3.8626   4.1934
     4.5329   4.7496   4.8129   5.3251   5.9707   6.7950   7.9172  10.0010
    10.0733  15.6211

          k =-0.4989 0.2417 0.3685 (  3920 PWs)   bands (ev):

   -72.8858 -42.3103 -41.5284 -41.0066 -10.6797 -10.4564 -10.2661 -10.0636
     0.9018   1.2704   1.9659   2.2357   2.8057   3.3418   3.6777   4.2005
     4.4034   4.5179   4.9248   5.1714   5.9665   6.9674   7.9079   9.7835
    10.0748  15.6320

          k =-0.4984 0.2400-0.1937 (  3909 PWs)   bands (ev):

   -72.8857 -42.3103 -41.5284 -41.0066 -10.7205 -10.4679 -10.2579 -10.0257
     1.0996   1.3155   2.1794   2.5323   2.7016   2.9986   3.4747   4.1212
     4.2756   4.4845   4.8741   5.0969   5.9631   7.0972   7.8972   9.5887
    10.0681  16.0435

          k =-0.4986 0.2405-0.0063 (  3921 PWs)   bands (ev):

   -72.8858 -42.3103 -41.5285 -41.0066 -10.6790 -10.4551 -10.2675 -10.0642
     0.9011   1.2707   1.9624   2.2357   2.8046   3.3429   3.6787   4.2052
     4.4066   4.5169   4.9253   5.1693   5.9669   6.9662   7.9069   9.7842
    10.0750  15.6249

          k =-0.4994-0.1169 0.4699 (  3922 PWs)   bands (ev):

   -72.8858 -42.3103 -41.5284 -41.0066 -10.6340 -10.4348 -10.2854 -10.1052
     0.7120   1.2116   1.8406   2.2716   2.5897   3.5002   3.8991   4.2643
     4.5454   4.7595   4.8035   5.3300   5.9723   6.7914   7.9212   9.9840
    10.0990  15.2996

          k =-0.4995-0.1163 0.6573 (  3914 PWs)   bands (ev):

   -72.8858 -42.3103 -41.5284 -41.0066 -10.6806 -10.4533 -10.2691 -10.0627
     0.9189   1.2322   1.9703   2.3767   2.5988   3.4262   3.6816   4.2243
     4.3926   4.5211   4.9109   5.1648   5.9682   6.9630   7.9073   9.7935
    10.0619  15.8502

          k =-0.4990-0.1180 0.0952 (  3922 PWs)   bands (ev):

   -72.8857 -42.3103 -41.5284 -41.0066 -10.7194 -10.4746 -10.2513 -10.0267
     1.0871   1.3480   2.2105   2.4407   2.6614   3.0994   3.4051   4.1407
     4.3465   4.4901   4.8977   5.0337   5.9585   7.0939   7.8970   9.5765
    10.0763  16.0911

     the Fermi energy is     7.0406 ev

!    total energy              =    -520.62066699 Ry
     total all-electron energy =     -3720.873925 Ry
     estimated scf accuracy    <       0.00000003 Ry
     smearing contrib. (-TS)   =      -0.00495310 Ry
     internal energy E=F+TS    =    -520.61571389 Ry

     The total energy is F=E-TS. E is the sum of the following terms:
     one-electron contribution =    -240.25962814 Ry
     hartree contribution      =     145.19920496 Ry
     xc contribution           =     -61.24787390 Ry
     ewald contribution        =    -185.81117471 Ry
     Hubbard energy            =       0.24468233 Ry
     one-center paw contrib.   =    -178.74092442 Ry

     convergence has been achieved in  12 iterations
     force_hub    :    106.64s CPU     15.22s WALL (       7 calls)
     dndtau       :     93.80s CPU     13.48s WALL (    5292 calls)
     dprojdtau    :     13.89s CPU      2.12s WALL (    5292 calls)
     calc_doverla :     50.97s CPU      7.39s WALL (    5292 calls)
     matel_dSdtau :     68.77s CPU      9.71s WALL (   10584 calls)

     Forces acting on atoms (cartesian axes, Ry/au):

     atom    1 type  1   force =     0.00075052    0.00197848   -0.00151149
     atom    2 type  1   force =     0.00012249   -0.00160962    0.00342647
     atom    3 type  3   force =    -0.00027754   -0.00143493   -0.00088058
     atom    4 type  2   force =    -0.00046661    0.00086598    0.00139626
     atom    5 type  2   force =     0.00019704   -0.00155070   -0.00352658
     atom    6 type  2   force =     0.00017560    0.00042162    0.00063454
     atom    7 type  2   force =    -0.00050150    0.00132916    0.00046138

     Total force =     0.006683     Total SCF correction =     0.000078


     Computing stress (Cartesian axis) and pressure

     stres_hub    :    286.00s CPU     40.24s WALL (       7 calls)
     dprojdepsilo :    236.06s CPU     33.16s WALL (    2268 calls)
     dprojdeps1   :     24.59s CPU      3.49s WALL (    2268 calls)
     dprojdeps2   :    131.23s CPU     18.70s WALL (    2268 calls)
     dprojdeps3   :     80.20s CPU     10.97s WALL (    2268 calls)
          total   stress  (Ry/bohr**3)                   (kbar)     P=       -0.76
  -0.00001795  -0.00000219   0.00000211           -2.64       -0.32        0.31
  -0.00000219  -0.00000504   0.00000292           -0.32       -0.74        0.43
   0.00000211   0.00000292   0.00000745            0.31        0.43        1.10

     Energy error            =      2.0E-04 Ry
     Gradient error          =      3.5E-03 Ry/Bohr
     Cell gradient error     =      2.6E+00 kbar

     number of scf cycles    =   7
     number of bfgs steps    =   6

     enthalpy           old  =    -520.6204635833 Ry
     enthalpy           new  =    -520.6206669908 Ry

     CASE: enthalpy          _new < enthalpy          _old

     new trust radius        =       0.0068208087 bohr
     new conv_thr            =       0.0000000203 Ry

     new unit-cell volume =    487.62023 a.u.^3 (    72.25786 Ang^3 )
     density =      3.85028 g/cm^3

CELL_PARAMETERS (angstrom)
   2.960924454  -0.002985675   0.003272858
   1.495650985   6.179999524  -0.014121945
   2.960401668   3.174965877   3.943036973

ATOMIC_POSITIONS (angstrom)
Mg               3.4360286992        4.7820297090        1.4548504642
Mg               3.4330918990        1.1037262858        0.3336798883
Mn               4.9143192686        2.3190105670        2.5374379375
O                3.4483866092        6.8904276832        1.8139046861
O                4.9144045102        4.3009356295        2.8693873984
O                3.4352540398        2.7829622491        1.3658292106
O                4.9267795687        8.3884712296        3.8968063015



     Writing config-only to output data dir .\out\\qgan.save\ :
     XML data file
     NEW-OLD atomic charge density approx. for the potential
     New effective cutoffs (rho, wfc):  493.36   61.65

     Check: negative core charge=   -0.000002

     Atomic wfc used for Hubbard projectors are orthogonalized


     total cpu time spent up to now is      429.2 secs

     Self-consistent Calculation

     iteration #  1     ecut=    60.00 Ry     beta= 0.70
     Davidson diagonalization with overlap
     ethr =  1.00E-06,  avg # of iterations =  7.9

     =================== HUBBARD OCCUPATIONS ===================
     ------------------------ ATOM    3 ------------------------
     Tr[ns(  3)] =   5.23625
     eigenvalues:
       0.219  0.311  0.398  0.713  0.976
     eigenvectors (columns):
       0.538  0.001 -0.205  0.001 -0.818
      -0.001 -0.965  0.002  0.264 -0.002
      -0.802  0.001 -0.421 -0.001 -0.423
       0.258 -0.003 -0.884 -0.000  0.391
       0.001 -0.264  0.001 -0.965 -0.001
     occupation matrix ns (before diag.):
       0.732  0.001  0.277 -0.209  0.000
       0.001  0.339  0.000 -0.001 -0.102
       0.277  0.000  0.386 -0.058  0.001
      -0.209 -0.001 -0.058  0.475 -0.000
       0.000 -0.102  0.001 -0.000  0.685

     Number of occupied Hubbard levels =    5.2363

     Threshold (ethr) on eigenvalues was too large:
     Diagonalizing with lowered threshold

     Davidson diagonalization with overlap
     ethr =  4.01E-08,  avg # of iterations =  3.5

     total cpu time spent up to now is      436.1 secs

     total energy              =    -520.62071638 Ry
     estimated scf accuracy    <       0.00001824 Ry

     iteration #  2     ecut=    60.00 Ry     beta= 0.70
     Davidson diagonalization with overlap
     ethr =  4.24E-08,  avg # of iterations =  3.8

     total cpu time spent up to now is      438.7 secs

     total energy              =    -520.62071569 Ry
     estimated scf accuracy    <       0.00001971 Ry

     iteration #  3     ecut=    60.00 Ry     beta= 0.70
     Davidson diagonalization with overlap
     ethr =  4.24E-08,  avg # of iterations =  2.0

     total cpu time spent up to now is      441.0 secs

     total energy              =    -520.62071905 Ry
     estimated scf accuracy    <       0.00001164 Ry

     iteration #  4     ecut=    60.00 Ry     beta= 0.70
     Davidson diagonalization with overlap
     ethr =  2.71E-08,  avg # of iterations =  2.0

     total cpu time spent up to now is      443.2 secs

     total energy              =    -520.62072010 Ry
     estimated scf accuracy    <       0.00001967 Ry

     iteration #  5     ecut=    60.00 Ry     beta= 0.70
     Davidson diagonalization with overlap
     ethr =  2.71E-08,  avg # of iterations =  1.0

     total cpu time spent up to now is      445.3 secs

     total energy              =    -520.62072214 Ry
     estimated scf accuracy    <       0.00000045 Ry

     iteration #  6     ecut=    60.00 Ry     beta= 0.70
     Davidson diagonalization with overlap
     ethr =  1.04E-09,  avg # of iterations =  6.2

     total cpu time spent up to now is      448.6 secs

     total energy              =    -520.62072257 Ry
     estimated scf accuracy    <       0.00000029 Ry

     iteration #  7     ecut=    60.00 Ry     beta= 0.70
     Davidson diagonalization with overlap
     ethr =  6.66E-10,  avg # of iterations =  2.3

     total cpu time spent up to now is      451.1 secs

     total energy              =    -520.62072266 Ry
     estimated scf accuracy    <       0.00000005 Ry

     iteration #  8     ecut=    60.00 Ry     beta= 0.70
     Davidson diagonalization with overlap
     ethr =  1.25E-10,  avg # of iterations = 11.3

     total cpu time spent up to now is      455.5 secs

     total energy              =    -520.62072275 Ry
     estimated scf accuracy    <       0.00000006 Ry

     iteration #  9     ecut=    60.00 Ry     beta= 0.70
     Davidson diagonalization with overlap
     ethr =  1.25E-10,  avg # of iterations =  1.5

     total cpu time spent up to now is      457.8 secs

     total energy              =    -520.62072278 Ry
     estimated scf accuracy    <       0.00000003 Ry

     iteration # 10     ecut=    60.00 Ry     beta= 0.70
     Davidson diagonalization with overlap
     ethr =  7.51E-11,  avg # of iterations =  3.3

     total cpu time spent up to now is      460.3 secs

     total energy              =    -520.62072280 Ry
     estimated scf accuracy    <       0.00000002 Ry

     iteration # 11     ecut=    60.00 Ry     beta= 0.70
     Davidson diagonalization with overlap
     ethr =  5.54E-11,  avg # of iterations =  3.0

     total cpu time spent up to now is      463.0 secs

     End of self-consistent calculation

     =================== HUBBARD OCCUPATIONS ===================
     ------------------------ ATOM    3 ------------------------
     Tr[ns(  3)] =   5.23685
     eigenvalues:
       0.219  0.311  0.399  0.713  0.976
     eigenvectors (columns):
       0.540  0.002 -0.205  0.001 -0.816
      -0.001 -0.964  0.002  0.265 -0.003
      -0.802  0.001 -0.421 -0.001 -0.424
       0.257 -0.003 -0.884 -0.000  0.392
       0.001 -0.265  0.001 -0.964 -0.001
     occupation matrix ns (before diag.):
       0.731  0.001  0.277 -0.209  0.000
       0.001  0.340  0.001 -0.001 -0.103
       0.277  0.001  0.387 -0.059  0.001
      -0.209 -0.001 -0.059  0.475 -0.000
       0.000 -0.103  0.001 -0.000  0.685

     Number of occupied Hubbard levels =    5.2369

          k = 0.0000 0.0000 0.0000 (  3893 PWs)   bands (ev):

   -72.8865 -42.3135 -41.5339 -40.9246 -11.8794 -10.5496 -10.2815 -10.0598
     0.8192   1.5002   2.2344   2.7015   3.0710   3.9269   4.1061   4.3696
     4.6250   5.4108   5.6245   5.6691   6.0575   7.1393   8.0026  10.0715
    10.3443  11.7285

          k =-0.0002 0.0005 0.1873 (  3890 PWs)   bands (ev):

   -72.8865 -42.3135 -41.5339 -40.9246 -11.6837 -10.7050 -10.3498 -10.0985
     1.0140   1.7968   1.9847   3.0731   3.0824   3.8883   4.0266   4.4807
     4.5990   4.9561   5.5697   5.5942   5.7626   7.0966   8.1031   9.7828
    10.3863  12.8440

          k = 0.0004-0.0010-0.3745 (  3892 PWs)   bands (ev):

   -72.8864 -42.3136 -41.5339 -40.9246 -11.3565 -10.9773 -10.4196 -10.1520
     1.2747   1.8224   2.5111   3.0157   3.0696   3.4957   3.8818   4.5449
     4.5709   4.8386   5.4747   5.5151   5.6312   7.0531   8.1844   9.5429
    10.4291  14.4520

          k = 0.0002 0.1194-0.0963 (  3887 PWs)   bands (ev):

   -72.8865 -42.3135 -41.5339 -40.9246 -11.7748 -10.5772 -10.4167 -10.0428
     1.0408   1.5172   2.1935   2.8020   3.1061   3.9482   4.1132   4.3162
     4.6877   5.0210   5.4823   5.6213   6.0650   7.1632   7.9951  10.1347
    10.3846  12.5193

          k = 0.0000 0.1198 0.0910 (  3903 PWs)   bands (ev):

   -72.8865 -42.3135 -41.5339 -40.9246 -11.7273 -10.7879 -10.2433 -10.0525
     0.9507   1.8003   2.1000   2.8983   3.0387   3.8086   3.9272   4.4855
     4.6219   5.2141   5.5759   5.5846   5.8349   7.1334   8.0995   9.7859
    10.3452  12.4935

          k = 0.0006 0.1184-0.4708 (  3919 PWs)   bands (ev):

   -72.8864 -42.3136 -41.5339 -40.9247 -11.4043 -11.0596 -10.3209 -10.0936
     1.3083   1.6524   2.4232   3.0377   3.1603   3.5133   3.9093   4.3399
     4.5887   5.0774   5.4354   5.4924   5.6770   7.0892   8.2013   9.5496
    10.3879  13.8569

          k = 0.0004 0.1189-0.2835 (  3898 PWs)   bands (ev):

   -72.8864 -42.3135 -41.5339 -40.9246 -11.5320 -10.7842 -10.4798 -10.0829
     1.2368   1.7902   2.2202   2.9730   3.1061   3.8333   3.9062   4.4353
     4.5028   4.9020   5.4408   5.5418   5.7723   7.1233   8.1226   9.8601
    10.4265  14.0889

          k =-0.0005-0.2387 0.1925 (  3906 PWs)   bands (ev):

   -72.8864 -42.3135 -41.5339 -40.9246 -11.6416 -10.6754 -10.5057 -10.0290
     1.0194   1.8592   2.3988   2.8318   3.1436   3.6057   3.9735   4.2577
     4.5727   4.9929   5.4715   5.5728   6.0698   7.1872   7.9862  10.2025
    10.4243  13.8327

          k =-0.0007-0.2382 0.3798 (  3904 PWs)   bands (ev):

   -72.8864 -42.3135 -41.5339 -40.9246 -11.5889 -10.8580 -10.3670 -10.0394
     1.3353   1.7534   2.0007   2.9144   3.0695   3.8032   3.9492   4.4387
     4.7422   4.8796   5.4284   5.5243   5.8065   7.1584   8.1288   9.8680
    10.3855  13.4192

          k =-0.0000-0.2397-0.1820 (  3896 PWs)   bands (ev):

   -72.8865 -42.3136 -41.5339 -40.9246 -11.4443 -11.1313 -10.2263 -10.0493
     1.1535   1.8272   2.3073   3.0077   3.0377   3.7150   3.9386   4.1047
     4.5995   5.1810   5.4759   5.5565   5.7248   7.1237   8.1683   9.5361
    10.3466  13.7664

          k = 0.2498-0.0608-0.1386 (  3908 PWs)   bands (ev):

   -72.8836 -42.3105 -41.5283 -40.9639 -11.3219 -10.5778 -10.2126 -10.0385
     1.4077   1.6777   2.1279   2.4357   2.7762   3.0224   3.8372   4.0101
     4.2838   5.0144   5.2931   5.5114   6.1162   6.9808   8.0235   9.6913
    10.1021  13.9383

          k = 0.2496-0.0603 0.0487 (  3889 PWs)   bands (ev):

   -72.8836 -42.3104 -41.5283 -40.9639 -11.4200 -10.4502 -10.2596 -10.0051
     1.4259   1.8145   2.0518   2.4453   2.8292   2.8670   3.7135   3.9882
     4.2930   5.0305   5.3782   5.5589   6.0432   7.0707   7.9522   9.7573
    10.0775  13.5888

          k = 0.2502-0.0617-0.5131 (  3915 PWs)   bands (ev):

   -72.8836 -42.3105 -41.5283 -40.9639 -11.2266 -10.5464 -10.3434 -10.0591
     1.3279   1.6865   2.1974   2.5563   2.6763   3.0141   3.9986   4.1272
     4.3889   4.9186   5.0591   5.4764   6.1589   6.9710   8.0187   9.6455
    10.0328  14.7121

          k = 0.2500-0.0612-0.3259 (  3914 PWs)   bands (ev):

   -72.8836 -42.3105 -41.5283 -40.9639 -11.0440 -10.7570 -10.2928 -10.0984
     1.3410   1.6542   2.0911   2.4467   2.7360   3.3607   3.9181   4.2059
     4.3871   4.8545   5.0046   5.4623   6.1807   6.8939   8.0860   9.8053
     9.8619  15.1074

          k = 0.2500 0.0586-0.2349 (  3915 PWs)   bands (ev):

   -72.8836 -42.3105 -41.5283 -40.9639 -11.2276 -10.5461 -10.3422 -10.0594
     1.3277   1.6873   2.1979   2.5541   2.6769   3.0131   3.9958   4.1270
     4.3910   4.9211   5.0571   5.4772   6.1595   6.9723   8.0183   9.6466
    10.0310  14.7088

          k = 0.2498 0.0591-0.0476 (  3893 PWs)   bands (ev):

   -72.8836 -42.3104 -41.5283 -40.9639 -11.4208 -10.4501 -10.2588 -10.0051
     1.4258   1.8139   2.0521   2.4443   2.8252   2.8711   3.7130   3.9867
     4.2955   5.0272   5.3819   5.5596   6.0418   7.0713   7.9522   9.7572
    10.0777  13.5869

          k = 0.2504 0.0576-0.6094 (  3905 PWs)   bands (ev):

   -72.8836 -42.3105 -41.5283 -40.9639 -11.3218 -10.5770 -10.2133 -10.0387
     1.4064   1.6787   2.1275   2.4343   2.7801   3.0200   3.8380   4.0113
     4.2845   5.0124   5.2920   5.5127   6.1169   6.9810   8.0233   9.6888
    10.1032  13.9416

          k = 0.2502 0.0581-0.4221 (  3913 PWs)   bands (ev):

   -72.8836 -42.3105 -41.5283 -40.9639 -11.0439 -10.7562 -10.2933 -10.0988
     1.3409   1.6538   2.0907   2.4461   2.7363   3.3631   3.9203   4.2051
     4.3840   4.8538   5.0059   5.4631   6.1814   6.8944   8.0852   9.8056
     9.8600  15.1092

          k = 0.2493-0.2995 0.0539 (  3919 PWs)   bands (ev):

   -72.8836 -42.3105 -41.5283 -40.9639 -11.1565 -10.6456 -10.3402 -10.0441
     1.4740   1.8472   2.1061   2.4692   2.6753   3.1242   3.7102   4.0377
     4.3786   4.8940   5.1157   5.5323   6.1518   6.9822   8.0330   9.6602
    10.1135  14.7166

          k = 0.2491-0.2990 0.2412 (  3910 PWs)   bands (ev):

   -72.8836 -42.3104 -41.5283 -40.9639 -11.2882 -10.4716 -10.4002 -10.0092
     1.3888   1.9735   2.2600   2.5115   2.6659   2.8976   3.5573   3.9473
     4.4781   4.9070   5.1610   5.5890   6.1113   7.0875   7.9388   9.7056
    10.0781  14.4972

          k = 0.2497-0.3004-0.3206 (  3906 PWs)   bands (ev):

   -72.8836 -42.3105 -41.5283 -40.9639 -11.2702 -10.6409 -10.2235 -10.0272
     1.6135   1.7838   1.9400   2.5602   2.7912   3.0557   3.5711   3.8889
     4.1525   5.0747   5.3461   5.5716   6.1049   6.9855   8.0346   9.7164
    10.1863  13.8671

          k = 0.2495-0.3000-0.1333 (  3915 PWs)   bands (ev):

   -72.8836 -42.3105 -41.5283 -40.9639 -11.0628 -10.8626 -10.1945 -10.0578
     1.5723   1.7215   1.9726   2.5646   2.7563   3.1072   3.5148   4.1745
     4.2930   4.8436   5.3123   5.5428   6.1528   6.8939   8.0987   9.9029
     9.9447  14.6276

          k = 0.2496-0.1801-0.0423 (  3909 PWs)   bands (ev):

   -72.8836 -42.3105 -41.5283 -40.9639 -11.2690 -10.6416 -10.2241 -10.0273
     1.6137   1.7845   1.9390   2.5646   2.7903   3.0520   3.5708   3.8900
     4.1539   5.0763   5.3414   5.5728   6.1060   6.9850   8.0339   9.7185
    10.1838  13.8673

          k = 0.2493-0.1796 0.1449 (  3918 PWs)   bands (ev):

   -72.8836 -42.3104 -41.5283 -40.9639 -11.2872 -10.4722 -10.4009 -10.0091
     1.3883   1.9730   2.2617   2.5147   2.6657   2.8961   3.5559   3.9480
     4.4770   4.9059   5.1631   5.5883   6.1114   7.0868   7.9388   9.7053
    10.0784  14.5011

          k = 0.2500-0.1811-0.4169 (  3919 PWs)   bands (ev):

   -72.8836 -42.3105 -41.5283 -40.9639 -11.1569 -10.6461 -10.3397 -10.0437
     1.4739   1.8480   2.1053   2.4712   2.6725   3.1265   3.7064   4.0402
     4.3783   4.8952   5.1157   5.5313   6.1501   6.9814   8.0338   9.6595
    10.1165  14.7128

          k = 0.2498-0.1806-0.2296 (  3905 PWs)   bands (ev):

   -72.8836 -42.3105 -41.5283 -40.9639 -11.0627 -10.8634 -10.1939 -10.0576
     1.5731   1.7206   1.9737   2.5664   2.7552   3.1064   3.5122   4.1756
     4.2935   4.8424   5.3152   5.5414   6.1518   6.8934   8.0994   9.9020
     9.9472  14.6271

          k =-0.4996 0.1215 0.2772 (  3922 PWs)   bands (ev):

   -72.8812 -42.3074 -41.5227 -41.0028 -10.6337 -10.4334 -10.2883 -10.0907
     0.7137   1.2124   1.8416   2.2778   2.5975   3.4954   3.8919   4.2632
     4.5464   4.7583   4.8052   5.3336   5.9819   6.7974   7.9298   9.9953
    10.1050  15.3056

          k =-0.4998 0.1220 0.4645 (  3917 PWs)   bands (ev):

   -72.8812 -42.3074 -41.5227 -41.0028 -10.6781 -10.4511 -10.2730 -10.0502
     0.9177   1.2316   1.9708   2.3817   2.6044   3.4239   3.6792   4.2256
     4.4004   4.5179   4.9125   5.1666   5.9784   6.9661   7.9147   9.8036
    10.0703  15.8423

          k =-0.4991 0.1206-0.0973 (  3934 PWs)   bands (ev):

   -72.8812 -42.3074 -41.5227 -41.0028 -10.7152 -10.4716 -10.2563 -10.0156
     1.0813   1.3458   2.2092   2.4485   2.6640   3.1047   3.4014   4.1459
     4.3530   4.4914   4.8983   5.0342   5.9691   7.0948   7.9035   9.5889
    10.0852  16.0909

          k =-0.4993 0.2409 0.1809 (  3926 PWs)   bands (ev):

   -72.8812 -42.3074 -41.5227 -41.0028 -10.6337 -10.4337 -10.2879 -10.0909
     0.7796   1.1141   1.8490   2.2750   2.5809   3.6494   3.8628   4.1964
     4.5386   4.7476   4.8157   5.3276   5.9806   6.8008   7.9236  10.0082
    10.0817  15.6153

          k =-0.4995 0.2414 0.3682 (  3920 PWs)   bands (ev):

   -72.8812 -42.3074 -41.5227 -41.0028 -10.6781 -10.4542 -10.2699 -10.0502
     0.9028   1.2692   1.9650   2.2382   2.8056   3.3418   3.6769   4.2065
     4.4075   4.5188   4.9255   5.1748   5.9766   6.9715   7.9142   9.7920
    10.0833  15.6346

          k =-0.4989 0.2399-0.1936 (  3909 PWs)   bands (ev):

   -72.8812 -42.3074 -41.5227 -41.0028 -10.7177 -10.4662 -10.2611 -10.0135
     1.0977   1.3130   2.1786   2.5362   2.7011   3.0014   3.4739   4.1224
     4.2845   4.4861   4.8773   5.0983   5.9734   7.1002   7.9036   9.5974
    10.0773  16.0478

          k =-0.4991 0.2404-0.0063 (  3921 PWs)   bands (ev):

   -72.8812 -42.3074 -41.5227 -41.0028 -10.6775 -10.4532 -10.2710 -10.0507
     0.9023   1.2694   1.9620   2.2383   2.8047   3.3428   3.6777   4.2105
     4.4100   4.5181   4.9256   5.1731   5.9769   6.9705   7.9134   9.7924
    10.0836  15.6282

          k =-0.5000-0.1172 0.4698 (  3922 PWs)   bands (ev):

   -72.8812 -42.3074 -41.5227 -41.0028 -10.6340 -10.4325 -10.2892 -10.0903
     0.7151   1.2120   1.8400   2.2731   2.5918   3.4968   3.8990   4.2672
     4.5502   4.7568   4.8060   5.3325   5.9822   6.7974   7.9279   9.9919
    10.1068  15.2997

          k =-0.5002-0.1167 0.6570 (  3914 PWs)   bands (ev):

   -72.8812 -42.3074 -41.5227 -41.0028 -10.6789 -10.4513 -10.2726 -10.0494
     0.9201   1.2308   1.9701   2.3795   2.5996   3.4246   3.6806   4.2278
     4.3995   4.5210   4.9127   5.1673   5.9783   6.9671   7.9138   9.8017
    10.0706  15.8484

          k =-0.4996-0.1181 0.0952 (  3922 PWs)   bands (ev):

   -72.8812 -42.3074 -41.5227 -41.0028 -10.7165 -10.4726 -10.2550 -10.0143
     1.0849   1.3453   2.2085   2.4456   2.6609   3.1048   3.4027   4.1435
     4.3537   4.4914   4.9017   5.0342   5.9687   7.0969   7.9033   9.5858
    10.0853  16.0939

     the Fermi energy is     7.0467 ev

!    total energy              =    -520.62072291 Ry
     total all-electron energy =     -3720.873981 Ry
     estimated scf accuracy    <       0.00000001 Ry
     smearing contrib. (-TS)   =      -0.00493071 Ry
     internal energy E=F+TS    =    -520.61579220 Ry

     The total energy is F=E-TS. E is the sum of the following terms:
     one-electron contribution =    -240.42442514 Ry
     hartree contribution      =     145.28729202 Ry
     xc contribution           =     -61.24967445 Ry
     ewald contribution        =    -185.73279192 Ry
     Hubbard energy            =       0.24470517 Ry
     one-center paw contrib.   =    -178.74089789 Ry

     convergence has been achieved in  11 iterations
     force_hub    :    120.34s CPU     17.47s WALL (       8 calls)
     dndtau       :    105.66s CPU     15.48s WALL (    6048 calls)
     dprojdtau    :     16.25s CPU      2.44s WALL (    6048 calls)
     calc_doverla :     57.17s CPU      8.49s WALL (    6048 calls)
     matel_dSdtau :     77.12s CPU     11.14s WALL (   12096 calls)

     Forces acting on atoms (cartesian axes, Ry/au):

     atom    1 type  1   force =     0.00060653    0.00103167   -0.00044918
     atom    2 type  1   force =     0.00009240   -0.00174587    0.00156206
     atom    3 type  3   force =    -0.00030006   -0.00060736    0.00025466
     atom    4 type  2   force =    -0.00043422    0.00029601    0.00079588
     atom    5 type  2   force =     0.00025059   -0.00147107   -0.00202041
     atom    6 type  2   force =     0.00018081    0.00142204   -0.00006828
     atom    7 type  2   force =    -0.00039606    0.00107459   -0.00007472

     Total force =     0.004272     Total SCF correction =     0.000107


     Computing stress (Cartesian axis) and pressure

     stres_hub    :    325.75s CPU     45.96s WALL (       8 calls)
     dprojdepsilo :    269.38s CPU     37.87s WALL (    2592 calls)
     dprojdeps1   :     27.88s CPU      3.98s WALL (    2592 calls)
     dprojdeps2   :    149.11s CPU     21.38s WALL (    2592 calls)
     dprojdeps3   :     92.36s CPU     12.50s WALL (    2592 calls)
          total   stress  (Ry/bohr**3)                   (kbar)     P=       -0.01
   0.00000241  -0.00000152   0.00000134            0.35       -0.22        0.20
  -0.00000152  -0.00000016   0.00000076           -0.22       -0.02        0.11
   0.00000134   0.00000076  -0.00000249            0.20        0.11       -0.37

     Energy error            =      5.6E-05 Ry
     Gradient error          =      2.0E-03 Ry/Bohr
     Cell gradient error     =      3.7E-01 kbar

     number of scf cycles    =   8
     number of bfgs steps    =   7

     enthalpy           old  =    -520.6206669909 Ry
     enthalpy           new  =    -520.6207229090 Ry

     CASE: enthalpy          _new < enthalpy          _old

     new trust radius        =       0.0057301427 bohr
     new conv_thr            =       0.0000000100 Ry

     new unit-cell volume =    487.60271 a.u.^3 (    72.25527 Ang^3 )
     density =      3.85042 g/cm^3

CELL_PARAMETERS (angstrom)
   2.959635813  -0.003286845   0.003547351
   1.494355323   6.180770561  -0.012479566
   2.959159069   3.176103150   3.945070472

ATOMIC_POSITIONS (angstrom)
Mg               3.4349084263        4.7843554790        1.4556949184
Mg               3.4316344223        1.1020286986        0.3368640241
Mn               4.9118969575        2.3193584849        2.5388148514
O                3.4458530389        6.8915654843        1.8172404335
O                4.9123352522        4.3003398178        2.8689501212
O                3.4337647879        2.7837388374        1.3673349662
O                4.9236416004        8.3913417214        3.9006583760



     Writing config-only to output data dir .\out\\qgan.save\ :
     XML data file
     NEW-OLD atomic charge density approx. for the potential
     New effective cutoffs (rho, wfc):  492.94   61.61

     Check: negative core charge=   -0.000002

     Atomic wfc used for Hubbard projectors are orthogonalized


     total cpu time spent up to now is      474.0 secs

     Self-consistent Calculation

     iteration #  1     ecut=    60.00 Ry     beta= 0.70
     Davidson diagonalization with overlap
     ethr =  1.00E-06,  avg # of iterations =  5.0

     =================== HUBBARD OCCUPATIONS ===================
     ------------------------ ATOM    3 ------------------------
     Tr[ns(  3)] =   5.23594
     eigenvalues:
       0.219  0.312  0.399  0.713  0.975
     eigenvectors (columns):
       0.540  0.002 -0.206  0.001 -0.816
      -0.001 -0.964  0.002  0.265 -0.003
      -0.802  0.001 -0.420 -0.001 -0.424
       0.256 -0.003 -0.884 -0.001  0.392
       0.001 -0.265  0.001 -0.964 -0.001
     occupation matrix ns (before diag.):
       0.731  0.002  0.278 -0.209  0.000
       0.002  0.340  0.001 -0.001 -0.103
       0.278  0.001  0.387 -0.059  0.001
      -0.209 -0.001 -0.059  0.475 -0.000
       0.000 -0.103  0.001 -0.000  0.685

     Number of occupied Hubbard levels =    5.2359

     Threshold (ethr) on eigenvalues was too large:
     Diagonalizing with lowered threshold

     Davidson diagonalization with overlap
     ethr =  2.04E-08,  avg # of iterations =  4.7

     total cpu time spent up to now is      480.0 secs

     total energy              =    -520.62074297 Ry
     estimated scf accuracy    <       0.00001016 Ry

     iteration #  2     ecut=    60.00 Ry     beta= 0.70
     Davidson diagonalization with overlap
     ethr =  2.36E-08,  avg # of iterations =  4.1

     total cpu time spent up to now is      482.7 secs

     total energy              =    -520.62073835 Ry
     estimated scf accuracy    <       0.00004316 Ry

     iteration #  3     ecut=    60.00 Ry     beta= 0.70
     Davidson diagonalization with overlap
     ethr =  2.36E-08,  avg # of iterations =  2.0

     total cpu time spent up to now is      485.3 secs

     total energy              =    -520.62074370 Ry
     estimated scf accuracy    <       0.00002047 Ry

     iteration #  4     ecut=    60.00 Ry     beta= 0.70
     Davidson diagonalization with overlap
     ethr =  2.36E-08,  avg # of iterations =  2.0

     total cpu time spent up to now is      487.5 secs

     total energy              =    -520.62074640 Ry
     estimated scf accuracy    <       0.00000276 Ry

     iteration #  5     ecut=    60.00 Ry     beta= 0.70
     Davidson diagonalization with overlap
     ethr =  6.42E-09,  avg # of iterations =  2.0

     total cpu time spent up to now is      489.7 secs

     total energy              =    -520.62074689 Ry
     estimated scf accuracy    <       0.00000020 Ry

     iteration #  6     ecut=    60.00 Ry     beta= 0.70
     Davidson diagonalization with overlap
     ethr =  4.75E-10,  avg # of iterations =  6.6

     total cpu time spent up to now is      493.0 secs

     total energy              =    -520.62074710 Ry
     estimated scf accuracy    <       0.00000016 Ry

     iteration #  7     ecut=    60.00 Ry     beta= 0.70
     Davidson diagonalization with overlap
     ethr =  3.73E-10,  avg # of iterations =  1.8

     total cpu time spent up to now is      495.3 secs

     total energy              =    -520.62074712 Ry
     estimated scf accuracy    <       0.00000002 Ry

     iteration #  8     ecut=    60.00 Ry     beta= 0.70
     Davidson diagonalization with overlap
     c_bands:  1 eigenvalues not converged
     c_bands:  4 eigenvalues not converged
     c_bands:  1 eigenvalues not converged
     ethr =  5.28E-11,  avg # of iterations = 14.9

     total cpu time spent up to now is      500.0 secs

     total energy              =    -520.62074717 Ry
     estimated scf accuracy    <       0.00000001 Ry

     iteration #  9     ecut=    60.00 Ry     beta= 0.70
     Davidson diagonalization with overlap
     ethr =  2.84E-11,  avg # of iterations =  2.4

     total cpu time spent up to now is      502.4 secs

     End of self-consistent calculation

     =================== HUBBARD OCCUPATIONS ===================
     ------------------------ ATOM    3 ------------------------
     Tr[ns(  3)] =   5.23673
     eigenvalues:
       0.219  0.312  0.399  0.713  0.975
     eigenvectors (columns):
       0.540  0.002 -0.206  0.001 -0.816
      -0.001 -0.964  0.002  0.265 -0.003
      -0.802  0.001 -0.420 -0.001 -0.425
       0.255 -0.003 -0.884 -0.001  0.392
       0.001 -0.265  0.001 -0.964 -0.001
     occupation matrix ns (before diag.):
       0.730  0.002  0.278 -0.209  0.000
       0.002  0.340  0.001 -0.001 -0.103
       0.278  0.001  0.387 -0.059  0.001
      -0.209 -0.001 -0.059  0.476 -0.000
       0.000 -0.103  0.001 -0.000  0.685

     Number of occupied Hubbard levels =    5.2367

          k = 0.0000 0.0000 0.0000 (  3893 PWs)   bands (ev):

   -72.8859 -42.3134 -41.5330 -40.9240 -11.8807 -10.5539 -10.2823 -10.0551
     0.8165   1.5000   2.2322   2.7023   3.0718   3.9291   4.1026   4.3714
     4.6206   5.4128   5.6269   5.6785   6.0595   7.1413   8.0032  10.0733
    10.3454  11.7290

          k =-0.0002 0.0004 0.1872 (  3890 PWs)   bands (ev):

   -72.8859 -42.3135 -41.5330 -40.9240 -11.6854 -10.7089 -10.3498 -10.0947
     1.0115   1.7963   1.9833   3.0737   3.0815   3.8907   4.0239   4.4823
     4.5943   4.9571   5.5737   5.6039   5.7641   7.0986   8.1041   9.7845
    10.3873  12.8446

          k = 0.0004-0.0009-0.3744 (  3892 PWs)   bands (ev):

   -72.8858 -42.3135 -41.5330 -40.9240 -11.3588 -10.9805 -10.4189 -10.1488
     1.2718   1.8213   2.5102   3.0162   3.0701   3.4923   3.8840   4.5421
     4.5722   4.8372   5.4782   5.5252   5.6335   7.0550   8.1859   9.5441
    10.4299  14.4546

          k = 0.0002 0.1194-0.0963 (  3887 PWs)   bands (ev):

   -72.8859 -42.3134 -41.5330 -40.9239 -11.7762 -10.5805 -10.4184 -10.0383
     1.0388   1.5164   2.1916   2.8007   3.1067   3.9505   4.1108   4.3181
     4.6854   5.0204   5.4861   5.6307   6.0665   7.1653   7.9956  10.1367
    10.3855  12.5193

          k = 0.0000 0.1198 0.0909 (  3903 PWs)   bands (ev):

   -72.8859 -42.3135 -41.5330 -40.9240 -11.7289 -10.7915 -10.2430 -10.0494
     0.9484   1.7977   2.1005   2.8975   3.0394   3.8068   3.9294   4.4872
     4.6169   5.2181   5.5838   5.5864   5.8364   7.1355   8.1001   9.7882
    10.3463  12.4939

          k = 0.0007 0.1185-0.4707 (  3919 PWs)   bands (ev):

   -72.8859 -42.3136 -41.5330 -40.9240 -11.4064 -11.0626 -10.3198 -10.0913
     1.3061   1.6502   2.4220   3.0384   3.1607   3.5113   3.9114   4.3381
     4.5902   5.0760   5.4376   5.5022   5.6785   7.0913   8.2022   9.5518
    10.3889  13.8587

          k = 0.0005 0.1189-0.2835 (  3898 PWs)   bands (ev):

   -72.8858 -42.3135 -41.5330 -40.9239 -11.5338 -10.7873 -10.4805 -10.0791
     1.2347   1.7895   2.2179   2.9720   3.1066   3.8319   3.9085   4.4369
     4.5002   4.9002   5.4449   5.5515   5.7737   7.1254   8.1236   9.8616
    10.4272  14.0897

          k =-0.0005-0.2387 0.1926 (  3906 PWs)   bands (ev):

   -72.8859 -42.3134 -41.5330 -40.9239 -11.6431 -10.6759 -10.5099 -10.0247
     1.0186   1.8566   2.3975   2.8294   3.1441   3.6048   3.9758   4.2595
     4.5712   4.9921   5.4753   5.5821   6.0702   7.1895   7.9866  10.2044
    10.4251  13.8332

          k =-0.0007-0.2383 0.3798 (  3904 PWs)   bands (ev):

   -72.8859 -42.3135 -41.5330 -40.9240 -11.5905 -10.8614 -10.3669 -10.0363
     1.3332   1.7516   1.9995   2.9124   3.0701   3.8033   3.9513   4.4404
     4.7404   4.8786   5.4309   5.5338   5.8075   7.1607   8.1294   9.8703
    10.3864  13.4191

          k =-0.0000-0.2396-0.1819 (  3896 PWs)   bands (ev):

   -72.8859 -42.3135 -41.5330 -40.9240 -11.4464 -11.1342 -10.2249 -10.0475
     1.1518   1.8236   2.3062   3.0084   3.0385   3.7146   3.9406   4.1029
     4.6011   5.1804   5.4854   5.5564   5.7268   7.1260   8.1688   9.5390
    10.3478  13.7666

          k = 0.2499-0.0607-0.1386 (  3908 PWs)   bands (ev):

   -72.8830 -42.3104 -41.5273 -40.9634 -11.3231 -10.5809 -10.2134 -10.0332
     1.4054   1.6784   2.1262   2.4350   2.7748   3.0214   3.8407   4.0097
     4.2854   5.0114   5.2952   5.5159   6.1175   6.9823   8.0251   9.6931
    10.1043  13.9375

          k = 0.2497-0.0603 0.0486 (  3889 PWs)   bands (ev):

   -72.8830 -42.3104 -41.5273 -40.9634 -11.4210 -10.4538 -10.2603  -9.9998
     1.4236   1.8143   2.0505   2.4437   2.8284   2.8654   3.7133   3.9949
     4.2911   5.0300   5.3791   5.5642   6.0444   7.0719   7.9536   9.7591
    10.0800  13.5881

          k = 0.2503-0.0616-0.5130 (  3915 PWs)   bands (ev):

   -72.8830 -42.3104 -41.5274 -40.9634 -11.2281 -10.5494 -10.3439 -10.0540
     1.3262   1.6862   2.1973   2.5549   2.6751   3.0125   4.0024   4.1283
     4.3874   4.9196   5.0565   5.4818   6.1605   6.9722   8.0207   9.6479
    10.0350  14.7115

          k = 0.2501-0.0611-0.3258 (  3914 PWs)   bands (ev):

   -72.8830 -42.3104 -41.5274 -40.9634 -11.0462 -10.7594 -10.2931 -10.0935
     1.3394   1.6537   2.0909   2.4461   2.7353   3.3583   3.9205   4.2075
     4.3882   4.8529   5.0024   5.4671   6.1824   6.8955   8.0881   9.8078
     9.8637  15.1040

          k = 0.2501 0.0587-0.2349 (  3915 PWs)   bands (ev):

   -72.8830 -42.3104 -41.5274 -40.9634 -11.2290 -10.5493 -10.3428 -10.0542
     1.3261   1.6869   2.1978   2.5527   2.6757   3.0119   3.9998   4.1282
     4.3893   4.9218   5.0547   5.4823   6.1610   6.9735   8.0203   9.6489
    10.0333  14.7086

          k = 0.2499 0.0591-0.0476 (  3893 PWs)   bands (ev):

   -72.8830 -42.3104 -41.5273 -40.9634 -11.4217 -10.4537 -10.2596  -9.9997
     1.4236   1.8139   2.0508   2.4429   2.8246   2.8691   3.7129   3.9936
     4.2932   5.0271   5.3823   5.5647   6.0432   7.0725   7.9536   9.7591
    10.0802  13.5866

          k = 0.2506 0.0578-0.6093 (  3905 PWs)   bands (ev):

   -72.8830 -42.3104 -41.5273 -40.9634 -11.3231 -10.5802 -10.2141 -10.0333
     1.4041   1.6792   2.1259   2.4338   2.7784   3.0191   3.8415   4.0108
     4.2859   5.0097   5.2942   5.5171   6.1182   6.9824   8.0250   9.6910
    10.1053  13.9403

          k = 0.2504 0.0582-0.4221 (  3913 PWs)   bands (ev):

   -72.8830 -42.3104 -41.5274 -40.9634 -11.0461 -10.7587 -10.2935 -10.0938
     1.3393   1.6534   2.0906   2.4457   2.7355   3.3603   3.9225   4.2067
     4.3856   4.8523   5.0033   5.4679   6.1831   6.8960   8.0873   9.8081
     9.8620  15.1055

          k = 0.2494-0.2994 0.0540 (  3919 PWs)   bands (ev):

   -72.8830 -42.3104 -41.5274 -40.9634 -11.1581 -10.6481 -10.3409 -10.0393
     1.4729   1.8464   2.1052   2.4687   2.6743   3.1228   3.7106   4.0398
     4.3789   4.8947   5.1140   5.5367   6.1538   6.9834   8.0345   9.6631
    10.1159  14.7158

          k = 0.2492-0.2990 0.2412 (  3910 PWs)   bands (ev):

   -72.8830 -42.3104 -41.5274 -40.9634 -11.2893 -10.4730 -10.4028 -10.0041
     1.3877   1.9717   2.2598   2.5114   2.6648   2.8951   3.5561   3.9524
     4.4769   4.9081   5.1601   5.5944   6.1133   7.0882   7.9401   9.7079
    10.0811  14.4976

          k = 0.2498-0.3003-0.3205 (  3906 PWs)   bands (ev):

   -72.8830 -42.3104 -41.5273 -40.9634 -11.2713 -10.6439 -10.2242 -10.0223
     1.6119   1.7839   1.9380   2.5597   2.7903   3.0536   3.5731   3.8888
     4.1549   5.0738   5.3469   5.5757   6.1068   6.9868   8.0358   9.7191
    10.1883  13.8660

          k = 0.2496-0.2998-0.1332 (  3915 PWs)   bands (ev):

   -72.8830 -42.3104 -41.5274 -40.9634 -11.0645 -10.8651 -10.1950 -10.0531
     1.5716   1.7206   1.9712   2.5650   2.7549   3.1059   3.5161   4.1756
     4.2945   4.8403   5.3143   5.5466   6.1544   6.8956   8.1002   9.9057
     9.9465  14.6223

          k = 0.2496-0.1801-0.0423 (  3909 PWs)   bands (ev):

   -72.8830 -42.3104 -41.5273 -40.9634 -11.2703 -10.6446 -10.2248 -10.0223
     1.6123   1.7845   1.9373   2.5636   2.7894   3.0504   3.5729   3.8897
     4.1562   5.0751   5.3429   5.5767   6.1078   6.9865   8.0352   9.7209
    10.1862  13.8661

          k = 0.2494-0.1796 0.1449 (  3918 PWs)   bands (ev):

   -72.8830 -42.3104 -41.5274 -40.9634 -11.2884 -10.4735 -10.4033 -10.0041
     1.3872   1.9713   2.2611   2.5144   2.6645   2.8939   3.5548   3.9531
     4.4760   4.9071   5.1618   5.5938   6.1134   7.0875   7.9401   9.7075
    10.0814  14.5009

          k = 0.2501-0.1809-0.4167 (  3919 PWs)   bands (ev):

   -72.8830 -42.3104 -41.5274 -40.9634 -11.1584 -10.6485 -10.3405 -10.0389
     1.4727   1.8471   2.1046   2.4705   2.6719   3.1247   3.7072   4.0420
     4.3785   4.8958   5.1141   5.5359   6.1523   6.9825   8.0353   9.6624
    10.1185  14.7128

          k = 0.2499-0.1805-0.2295 (  3905 PWs)   bands (ev):

   -72.8830 -42.3104 -41.5273 -40.9634 -11.0644 -10.8658 -10.1944 -10.0529
     1.5723   1.7199   1.9721   2.5665   2.7540   3.1053   3.5139   4.1766
     4.2949   4.8392   5.3169   5.5453   6.1535   6.8951   8.1008   9.9049
     9.9487  14.6218

          k =-0.4998 0.1214 0.2772 (  3922 PWs)   bands (ev):

   -72.8806 -42.3073 -41.5217 -41.0024 -10.6371 -10.4351 -10.2875 -10.0844
     0.7143   1.2109   1.8405   2.2763   2.5956   3.4935   3.8909   4.2645
     4.5459   4.7604   4.8087   5.3323   5.9850   6.7990   7.9316   9.9976
    10.1075  15.3030

          k =-0.5000 0.1218 0.4644 (  3917 PWs)   bands (ev):

   -72.8806 -42.3073 -41.5217 -41.0024 -10.6806 -10.4527 -10.2724 -10.0447
     0.9174   1.2295   1.9702   2.3810   2.6021   3.4222   3.6770   4.2268
     4.4036   4.5185   4.9145   5.1671   5.9816   6.9667   7.9165   9.8065
    10.0728  15.8393

          k =-0.4993 0.1205-0.0973 (  3934 PWs)   bands (ev):

   -72.8806 -42.3073 -41.5217 -41.0025 -10.7172 -10.4729 -10.2560 -10.0105
     1.0795   1.3431   2.2079   2.4497   2.6604   3.1064   3.3973   4.1499
     4.3541   4.4913   4.9002   5.0354   5.9724   7.0949   7.9053   9.5921
    10.0878  16.0887

          k =-0.4995 0.2408 0.1809 (  3926 PWs)   bands (ev):

   -72.8806 -42.3073 -41.5217 -41.0024 -10.6371 -10.4355 -10.2871 -10.0846
     0.7805   1.1123   1.8475   2.2748   2.5791   3.6471   3.8607   4.1972
     4.5386   4.7492   4.8196   5.3267   5.9836   6.8023   7.9256  10.0105
    10.0842  15.6097

          k =-0.4998 0.2412 0.3681 (  3920 PWs)   bands (ev):

   -72.8806 -42.3073 -41.5217 -41.0024 -10.6806 -10.4555 -10.2696 -10.0447
     0.9024   1.2668   1.9642   2.2376   2.8031   3.3411   3.6745   4.2094
     4.4089   4.5194   4.9270   5.1755   5.9797   6.9720   7.9161   9.7950
    10.0857  15.6336

          k =-0.4991 0.2399-0.1936 (  3909 PWs)   bands (ev):

   -72.8806 -42.3073 -41.5217 -41.0025 -10.7196 -10.4675 -10.2607 -10.0086
     1.0954   1.3108   2.1771   2.5373   2.6979   3.0026   3.4696   4.1252
     4.2879   4.4858   4.8788   5.0995   5.9767   7.1002   7.9054   9.6008
    10.0799  16.0461

          k =-0.4993 0.2403-0.0063 (  3921 PWs)   bands (ev):

   -72.8806 -42.3073 -41.5217 -41.0024 -10.6800 -10.4548 -10.2704 -10.0451
     0.9021   1.2668   1.9616   2.2376   2.8024   3.3420   3.6751   4.2127
     4.4111   4.5189   4.9270   5.1741   5.9801   6.9712   7.9154   9.7953
    10.0860  15.6278

          k =-0.5003-0.1173 0.4697 (  3922 PWs)   bands (ev):

   -72.8806 -42.3073 -41.5217 -41.0024 -10.6374 -10.4344 -10.2882 -10.0841
     0.7156   1.2104   1.8390   2.2724   2.5907   3.4949   3.8969   4.2679
     4.5490   4.7590   4.8093   5.3315   5.9852   6.7992   7.9300   9.9945
    10.1091  15.2976

          k =-0.5005-0.1169 0.6569 (  3914 PWs)   bands (ev):

   -72.8806 -42.3073 -41.5217 -41.0024 -10.6814 -10.4528 -10.2721 -10.0440
     0.9195   1.2287   1.9695   2.3791   2.5978   3.4229   3.6783   4.2286
     4.4028   4.5211   4.9146   5.1679   5.9815   6.9676   7.9158   9.8048
    10.0731  15.8442

          k =-0.4998-0.1182 0.0953 (  3922 PWs)   bands (ev):

   -72.8806 -42.3073 -41.5217 -41.0025 -10.7183 -10.4737 -10.2549 -10.0095
     1.0828   1.3426   2.2073   2.4474   2.6575   3.1068   3.3983   4.1477
     4.3546   4.4914   4.9032   5.0356   5.9720   7.0968   7.9051   9.5894
    10.0879  16.0919

     the Fermi energy is     7.0480 ev

!    total energy              =    -520.62074717 Ry
     total all-electron energy =     -3720.874006 Ry
     estimated scf accuracy    <          4.9E-09 Ry
     smearing contrib. (-TS)   =      -0.00492898 Ry
     internal energy E=F+TS    =    -520.61581819 Ry

     The total energy is F=E-TS. E is the sum of the following terms:
     one-electron contribution =    -240.55238762 Ry
     hartree contribution      =     145.35193623 Ry
     xc contribution           =     -61.25016409 Ry
     ewald contribution        =    -185.66912692 Ry
     Hubbard energy            =       0.24475270 Ry
     one-center paw contrib.   =    -178.74082849 Ry

     convergence has been achieved in   9 iterations
     force_hub    :    136.56s CPU     19.55s WALL (       9 calls)
     dndtau       :    119.95s CPU     17.32s WALL (    6804 calls)
     dprojdtau    :     18.72s CPU      2.73s WALL (    6804 calls)
     calc_doverla :     65.17s CPU      9.45s WALL (    6804 calls)
     matel_dSdtau :     87.45s CPU     12.48s WALL (   13608 calls)

     Forces acting on atoms (cartesian axes, Ry/au):

     atom    1 type  1   force =     0.00049166    0.00013698    0.00009317
     atom    2 type  1   force =     0.00005378   -0.00106696    0.00018875
     atom    3 type  3   force =    -0.00023233    0.00047505    0.00045258
     atom    4 type  2   force =    -0.00038328   -0.00007996    0.00041590
     atom    5 type  2   force =     0.00026248   -0.00112263   -0.00048464
     atom    6 type  2   force =     0.00011429    0.00090333   -0.00057510
     atom    7 type  2   force =    -0.00030660    0.00075420   -0.00009066

     Total force =     0.002377     Total SCF correction =     0.000058


     Computing stress (Cartesian axis) and pressure

     stres_hub    :    367.44s CPU     51.45s WALL (       9 calls)
     dprojdepsilo :    303.78s CPU     42.37s WALL (    2916 calls)
     dprojdeps1   :     30.28s CPU      4.48s WALL (    2916 calls)
     dprojdeps2   :    168.36s CPU     23.88s WALL (    2916 calls)
     dprojdeps3   :    105.11s CPU     13.98s WALL (    2916 calls)
          total   stress  (Ry/bohr**3)                   (kbar)     P=        0.05
   0.00000891  -0.00000136   0.00000105            1.31       -0.20        0.15
  -0.00000136   0.00000178   0.00000020           -0.20        0.26        0.03
   0.00000105   0.00000020  -0.00000976            0.15        0.03       -1.44

     Energy error            =      2.4E-05 Ry
     Gradient error          =      1.1E-03 Ry/Bohr
     Cell gradient error     =      1.4E+00 kbar

     number of scf cycles    =   9
     number of bfgs steps    =   8

     enthalpy           old  =    -520.6207229090 Ry
     enthalpy           new  =    -520.6207471705 Ry

     CASE: enthalpy          _new < enthalpy          _old

     new trust radius        =       0.0035898024 bohr
     new conv_thr            =       0.0000000100 Ry

     new unit-cell volume =    487.57049 a.u.^3 (    72.25049 Ang^3 )
     density =      3.85068 g/cm^3

CELL_PARAMETERS (angstrom)
   2.959856596  -0.003524254   0.003745665
   1.493963201   6.181151041  -0.011828366
   2.959388240   3.176479090   3.944677098

ATOMIC_POSITIONS (angstrom)
Mg               3.4354626909        4.7854384459        1.4558417629
Mg               3.4319144637        1.1004713503        0.3383966138
Mn               4.9119879751        2.3197024434        2.5388526671
O                3.4452378057        6.8919714562        1.8181535720
O                4.9128092209        4.2992342760        2.8677355080
O                3.4340160589        2.7845450798        1.3672013129
O                4.9232087933        8.3928478146        3.9008397473



     Writing config-only to output data dir .\out\\qgan.save\ :
     XML data file
     NEW-OLD atomic charge density approx. for the potential
     New effective cutoffs (rho, wfc):  493.02   61.62

     Check: negative core charge=   -0.000002

     Atomic wfc used for Hubbard projectors are orthogonalized


     total cpu time spent up to now is      513.0 secs

     Self-consistent Calculation

     iteration #  1     ecut=    60.00 Ry     beta= 0.70
     Davidson diagonalization with overlap
     ethr =  1.00E-06,  avg # of iterations =  5.0

     =================== HUBBARD OCCUPATIONS ===================
     ------------------------ ATOM    3 ------------------------
     Tr[ns(  3)] =   5.23658
     eigenvalues:
       0.219  0.312  0.399  0.713  0.975
     eigenvectors (columns):
       0.540  0.002  0.206  0.001 -0.816
      -0.001 -0.964 -0.002  0.265 -0.003
      -0.802  0.001  0.419 -0.001 -0.425
       0.255 -0.003  0.884 -0.001  0.392
       0.001 -0.265 -0.001 -0.964 -0.002
     occupation matrix ns (before diag.):
       0.730  0.002  0.278 -0.209  0.000
       0.002  0.340  0.001 -0.001 -0.103
       0.278  0.001  0.387 -0.059  0.001
      -0.209 -0.001 -0.059  0.476 -0.000
       0.000 -0.103  0.001 -0.000  0.685

     Number of occupied Hubbard levels =    5.2366

     Threshold (ethr) on eigenvalues was too large:
     Diagonalizing with lowered threshold

     Davidson diagonalization with overlap
     ethr =  8.21E-09,  avg # of iterations =  7.8

     total cpu time spent up to now is      519.8 secs

     total energy              =    -520.62075568 Ry
     estimated scf accuracy    <       0.00000448 Ry

     iteration #  2     ecut=    60.00 Ry     beta= 0.70
     Davidson diagonalization with overlap
     ethr =  1.04E-08,  avg # of iterations =  4.2

     total cpu time spent up to now is      522.6 secs

     total energy              =    -520.62075486 Ry
     estimated scf accuracy    <       0.00001003 Ry

     iteration #  3     ecut=    60.00 Ry     beta= 0.70
     Davidson diagonalization with overlap
     ethr =  1.04E-08,  avg # of iterations =  2.1

     total cpu time spent up to now is      525.0 secs

     total energy              =    -520.62075628 Ry
     estimated scf accuracy    <       0.00000432 Ry

     iteration #  4     ecut=    60.00 Ry     beta= 0.70
     Davidson diagonalization with overlap
     ethr =  1.01E-08,  avg # of iterations =  2.0

     total cpu time spent up to now is      527.4 secs

     total energy              =    -520.62075687 Ry
     estimated scf accuracy    <       0.00000365 Ry

     iteration #  5     ecut=    60.00 Ry     beta= 0.70
     Davidson diagonalization with overlap
     ethr =  8.49E-09,  avg # of iterations =  1.7

     total cpu time spent up to now is      529.8 secs

     total energy              =    -520.62075730 Ry
     estimated scf accuracy    <       0.00000014 Ry

     iteration #  6     ecut=    60.00 Ry     beta= 0.70
     Davidson diagonalization with overlap
     ethr =  3.21E-10,  avg # of iterations =  5.4

     total cpu time spent up to now is      532.6 secs

     total energy              =    -520.62075740 Ry
     estimated scf accuracy    <       0.00000008 Ry

     iteration #  7     ecut=    60.00 Ry     beta= 0.70
     Davidson diagonalization with overlap
     ethr =  1.84E-10,  avg # of iterations =  1.9

     total cpu time spent up to now is      535.0 secs

     total energy              =    -520.62075741 Ry
     estimated scf accuracy    <       0.00000001 Ry

     iteration #  8     ecut=    60.00 Ry     beta= 0.70
     Davidson diagonalization with overlap
     ethr =  3.16E-11,  avg # of iterations = 13.8

     total cpu time spent up to now is      539.7 secs

     End of self-consistent calculation

     =================== HUBBARD OCCUPATIONS ===================
     ------------------------ ATOM    3 ------------------------
     Tr[ns(  3)] =   5.23662
     eigenvalues:
       0.219  0.312  0.399  0.713  0.975
     eigenvectors (columns):
       0.540  0.002  0.207  0.001 -0.816
      -0.001 -0.964 -0.002  0.265 -0.003
      -0.802  0.001  0.419 -0.001 -0.424
       0.255 -0.003  0.884 -0.001  0.392
       0.001 -0.265 -0.001 -0.964 -0.002
     occupation matrix ns (before diag.):
       0.731  0.002  0.278 -0.209  0.000
       0.002  0.340  0.001 -0.001 -0.103
       0.278  0.001  0.387 -0.059  0.001
      -0.209 -0.001 -0.059  0.476 -0.000
       0.000 -0.103  0.001 -0.000  0.685

     Number of occupied Hubbard levels =    5.2366

          k = 0.0000 0.0000 0.0000 (  3893 PWs)   bands (ev):

   -72.8854 -42.3128 -41.5323 -40.9235 -11.8809 -10.5547 -10.2823 -10.0519
     0.8156   1.5011   2.2335   2.7020   3.0720   3.9279   4.1033   4.3706
     4.6201   5.4156   5.6275   5.6817   6.0616   7.1418   8.0036  10.0753
    10.3458  11.7303

          k =-0.0002 0.0004 0.1873 (  3890 PWs)   bands (ev):

   -72.8853 -42.3128 -41.5323 -40.9235 -11.6853 -10.7097 -10.3502 -10.0914
     1.0112   1.7974   1.9838   3.0739   3.0815   3.8896   4.0240   4.4815
     4.5950   4.9585   5.5756   5.6070   5.7651   7.0991   8.1049   9.7862
    10.3877  12.8461

          k = 0.0005-0.0008-0.3745 (  3892 PWs)   bands (ev):

   -72.8852 -42.3129 -41.5324 -40.9235 -11.3578 -10.9823 -10.4196 -10.1454
     1.2709   1.8228   2.5127   3.0176   3.0701   3.4901   3.8831   4.5430
     4.5715   4.8369   5.4812   5.5281   5.6342   7.0555   8.1869   9.5456
    10.4304  14.4568

          k = 0.0003 0.1194-0.0963 (  3887 PWs)   bands (ev):

   -72.8853 -42.3128 -41.5323 -40.9235 -11.7762 -10.5807 -10.4191 -10.0352
     1.0387   1.5172   2.1924   2.7997   3.1070   3.9492   4.1122   4.3173
     4.6866   5.0205   5.4888   5.6338   6.0676   7.1659   7.9960  10.1387
    10.3859  12.5203

          k = 0.0000 0.1198 0.0909 (  3903 PWs)   bands (ev):

   -72.8854 -42.3128 -41.5323 -40.9235 -11.7290 -10.7918 -10.2433 -10.0464
     0.9480   1.7975   2.1031   2.8969   3.0395   3.8071   3.9282   4.4865
     4.6164   5.2212   5.5849   5.5888   5.8380   7.1361   8.1006   9.7904
    10.3467  12.4950

          k = 0.0007 0.1185-0.4708 (  3919 PWs)   bands (ev):

   -72.8853 -42.3129 -41.5323 -40.9235 -11.4061 -11.0633 -10.3202 -10.0882
     1.3059   1.6505   2.4246   3.0384   3.1607   3.5111   3.9103   4.3377
     4.5896   5.0773   5.4398   5.5051   5.6791   7.0919   8.2030   9.5539
    10.3893  13.8600

          k = 0.0005 0.1189-0.2836 (  3898 PWs)   bands (ev):

   -72.8852 -42.3128 -41.5324 -40.9235 -11.5334 -10.7882 -10.4809 -10.0760
     1.2348   1.7906   2.2185   2.9719   3.1068   3.8322   3.9074   4.4362
     4.5011   4.9004   5.4481   5.5545   5.7740   7.1260   8.1243   9.8633
    10.4276  14.0909

          k =-0.0005-0.2387 0.1926 (  3906 PWs)   bands (ev):

   -72.8853 -42.3128 -41.5324 -40.9235 -11.6428 -10.6758 -10.5113 -10.0216
     1.0193   1.8573   2.3984   2.8274   3.1445   3.6050   3.9743   4.2589
     4.5737   4.9929   5.4782   5.5852   6.0703   7.1902   7.9871  10.2064
    10.4254  13.8338

          k =-0.0008-0.2383 0.3799 (  3904 PWs)   bands (ev):

   -72.8853 -42.3128 -41.5323 -40.9235 -11.5905 -10.8617 -10.3673 -10.0335
     1.3336   1.7516   2.0010   2.9115   3.0703   3.8046   3.9501   4.4398
     4.7397   4.8803   5.4333   5.5367   5.8080   7.1614   8.1300   9.8726
    10.3869  13.4200

          k =-0.0001-0.2395-0.1819 (  3896 PWs)   bands (ev):

   -72.8854 -42.3129 -41.5323 -40.9235 -11.4467 -11.1341 -10.2254 -10.0446
     1.1519   1.8232   2.3085   3.0085   3.0392   3.7145   3.9394   4.1022
     4.6006   5.1818   5.4882   5.5574   5.7284   7.1267   8.1693   9.5416
    10.3482  13.7668

          k = 0.2499-0.0607-0.1386 (  3908 PWs)   bands (ev):

   -72.8824 -42.3098 -41.5267 -40.9629 -11.3231 -10.5817 -10.2129 -10.0312
     1.4042   1.6787   2.1265   2.4352   2.7762   3.0201   3.8418   4.0106
     4.2860   5.0112   5.2978   5.5181   6.1185   6.9832   8.0259   9.6942
    10.1058  13.9381

          k = 0.2496-0.0602 0.0486 (  3889 PWs)   bands (ev):

   -72.8824 -42.3097 -41.5267 -40.9629 -11.4212 -10.4547 -10.2595  -9.9977
     1.4225   1.8156   2.0492   2.4446   2.8275   2.8660   3.7135   3.9967
     4.2916   5.0295   5.3814   5.5676   6.0453   7.0727   7.9543   9.7602
    10.0816  13.5887

          k = 0.2504-0.0615-0.5131 (  3915 PWs)   bands (ev):

   -72.8824 -42.3098 -41.5267 -40.9629 -11.2279 -10.5506 -10.3436 -10.0515
     1.3251   1.6862   2.1992   2.5551   2.6748   3.0117   4.0040   4.1279
     4.3889   4.9218   5.0554   5.4848   6.1614   6.9730   8.0218   9.6493
    10.0363  14.7117

          k = 0.2501-0.0611-0.3259 (  3914 PWs)   bands (ev):

   -72.8824 -42.3098 -41.5267 -40.9629 -11.0451 -10.7612 -10.2932 -10.0908
     1.3380   1.6537   2.0929   2.4469   2.7346   3.3586   3.9220   4.2080
     4.3893   4.8542   5.0012   5.4702   6.1832   6.8965   8.0892   9.8099
     9.8643  15.1025

          k = 0.2501 0.0587-0.2349 (  3915 PWs)   bands (ev):

   -72.8824 -42.3098 -41.5267 -40.9629 -11.2286 -10.5505 -10.3427 -10.0517
     1.3252   1.6868   2.1997   2.5529   2.6753   3.0113   4.0017   4.1278
     4.3904   4.9239   5.0539   5.4853   6.1618   6.9743   8.0213   9.6501
    10.0349  14.7091

          k = 0.2499 0.0591-0.0477 (  3893 PWs)   bands (ev):

   -72.8824 -42.3097 -41.5267 -40.9629 -11.4217 -10.4547 -10.2589  -9.9976
     1.4225   1.8152   2.0495   2.4439   2.8242   2.8693   3.7132   3.9955
     4.2934   5.0270   5.3843   5.5681   6.0443   7.0732   7.9542   9.7602
    10.0817  13.5873

          k = 0.2506 0.0579-0.6095 (  3905 PWs)   bands (ev):

   -72.8824 -42.3098 -41.5267 -40.9629 -11.3231 -10.5811 -10.2135 -10.0312
     1.4031   1.6794   2.1261   2.4341   2.7795   3.0181   3.8425   4.0116
     4.2864   5.0097   5.2967   5.5193   6.1192   6.9832   8.0259   9.6924
    10.1066  13.9405

          k = 0.2504 0.0583-0.4222 (  3913 PWs)   bands (ev):

   -72.8824 -42.3098 -41.5267 -40.9629 -11.0451 -10.7606 -10.2937 -10.0911
     1.3379   1.6533   2.0925   2.4467   2.7346   3.3602   3.9239   4.2072
     4.3870   4.8536   5.0020   5.4709   6.1838   6.8969   8.0885   9.8101
     9.8629  15.1038

          k = 0.2494-0.2994 0.0540 (  3919 PWs)   bands (ev):

   -72.8824 -42.3098 -41.5267 -40.9629 -11.1577 -10.6489 -10.3412 -10.0368
     1.4724   1.8462   2.1068   2.4685   2.6744   3.1223   3.7104   4.0406
     4.3806   4.8962   5.1137   5.5395   6.1548   6.9842   8.0354   9.6646
    10.1177  14.7157

          k = 0.2491-0.2990 0.2413 (  3910 PWs)   bands (ev):

   -72.8824 -42.3097 -41.5267 -40.9629 -11.2891 -10.4728 -10.4038 -10.0017
     1.3873   1.9722   2.2612   2.5112   2.6649   2.8940   3.5548   3.9538
     4.4789   4.9098   5.1599   5.5975   6.1145   7.0888   7.9409   9.7089
    10.0831  14.4983

          k = 0.2498-0.3002-0.3205 (  3906 PWs)   bands (ev):

   -72.8824 -42.3098 -41.5267 -40.9629 -11.2713 -10.6444 -10.2242 -10.0201
     1.6112   1.7848   1.9371   2.5616   2.7902   3.0527   3.5734   3.8894
     4.1563   5.0738   5.3491   5.5780   6.1081   6.9876   8.0365   9.7208
    10.1896  13.8665

          k = 0.2496-0.2998-0.1333 (  3915 PWs)   bands (ev):

   -72.8824 -42.3098 -41.5267 -40.9629 -11.0641 -10.8661 -10.1949 -10.0508
     1.5711   1.7201   1.9717   2.5664   2.7550   3.1056   3.5168   4.1757
     4.2954   4.8406   5.3166   5.5481   6.1554   6.8966   8.1010   9.9079
     9.9474  14.6203

          k = 0.2496-0.1800-0.0423 (  3909 PWs)   bands (ev):

   -72.8824 -42.3098 -41.5267 -40.9629 -11.2704 -10.6450 -10.2246 -10.0201
     1.6116   1.7852   1.9365   2.5649   2.7894   3.0497   3.5734   3.8900
     4.1576   5.0749   5.3455   5.5789   6.1088   6.9874   8.0359   9.7222
    10.1879  13.8665

          k = 0.2494-0.1796 0.1450 (  3918 PWs)   bands (ev):

   -72.8824 -42.3097 -41.5267 -40.9629 -11.2884 -10.4733 -10.4043 -10.0017
     1.3869   1.9718   2.2623   2.5139   2.6646   2.8930   3.5537   3.9544
     4.4782   4.9089   5.1614   5.5969   6.1146   7.0882   7.9409   9.7086
    10.0833  14.5012

          k = 0.2501-0.1808-0.4168 (  3919 PWs)   bands (ev):

   -72.8824 -42.3098 -41.5267 -40.9629 -11.1581 -10.6492 -10.3409 -10.0365
     1.4720   1.8469   2.1063   2.4701   2.6724   3.1241   3.7074   4.0426
     4.3801   4.8972   5.1139   5.5387   6.1535   6.9833   8.0362   9.6641
    10.1198  14.7133

          k = 0.2499-0.1804-0.2296 (  3905 PWs)   bands (ev):

   -72.8824 -42.3098 -41.5267 -40.9629 -11.0640 -10.8667 -10.1944 -10.0507
     1.5718   1.7194   1.9725   2.5676   2.7542   3.1052   3.5148   4.1769
     4.2956   4.8397   5.3189   5.5469   6.1546   6.8961   8.1016   9.9073
     9.9492  14.6198

          k =-0.4998 0.1213 0.2772 (  3922 PWs)   bands (ev):

   -72.8801 -42.3067 -41.5211 -41.0019 -10.6371 -10.4371 -10.2842 -10.0846
     0.7145   1.2104   1.8410   2.2760   2.5943   3.4946   3.8922   4.2658
     4.5441   4.7640   4.8119   5.3325   5.9849   6.8001   7.9326   9.9992
    10.1090  15.3032

          k =-0.5000 0.1217 0.4645 (  3917 PWs)   bands (ev):

   -72.8800 -42.3067 -41.5211 -41.0019 -10.6807 -10.4542 -10.2694 -10.0448
     0.9174   1.2290   1.9712   2.3807   2.6012   3.4228   3.6770   4.2280
     4.4052   4.5196   4.9171   5.1684   5.9816   6.9674   7.9175   9.8091
    10.0732  15.8393

          k =-0.4993 0.1205-0.0973 (  3934 PWs)   bands (ev):

   -72.8800 -42.3067 -41.5211 -41.0019 -10.7173 -10.4742 -10.2532 -10.0106
     1.0793   1.3426   2.2095   2.4506   2.6582   3.1076   3.3957   4.1540
     4.3536   4.4914   4.9023   5.0380   5.9724   7.0956   7.9062   9.5946
    10.0882  16.0890

          k =-0.4995 0.2407 0.1809 (  3926 PWs)   bands (ev):

   -72.8801 -42.3067 -41.5211 -41.0019 -10.6370 -10.4375 -10.2836 -10.0849
     0.7808   1.1116   1.8480   2.2750   2.5786   3.6478   3.8610   4.1984
     4.5376   4.7521   4.8229   5.3272   5.9836   6.8034   7.9267  10.0125
    10.0853  15.6087

          k =-0.4997 0.2411 0.3682 (  3920 PWs)   bands (ev):

   -72.8800 -42.3067 -41.5211 -41.0019 -10.6805 -10.4570 -10.2667 -10.0449
     0.9024   1.2661   1.9652   2.2374   2.8023   3.3419   3.6742   4.2115
     4.4098   4.5203   4.9295   5.1769   5.9798   6.9727   7.9170   9.7976
    10.0863  15.6342

          k =-0.4990 0.2398-0.1936 (  3909 PWs)   bands (ev):

   -72.8800 -42.3067 -41.5211 -41.0019 -10.7197 -10.4687 -10.2580 -10.0087
     1.0948   1.3108   2.1783   2.5379   2.6964   3.0041   3.4675   4.1289
     4.2888   4.4856   4.8810   5.1016   5.9767   7.1007   7.9064   9.6036
    10.0804  16.0462

          k =-0.4993 0.2403-0.0063 (  3921 PWs)   bands (ev):

   -72.8800 -42.3067 -41.5211 -41.0019 -10.6801 -10.4564 -10.2674 -10.0453
     0.9022   1.2660   1.9629   2.2374   2.8019   3.3427   3.6748   4.2141
     4.4119   4.5200   4.9294   5.1756   5.9801   6.9720   7.9165   9.7978
    10.0865  15.6289

          k =-0.5003-0.1174 0.4699 (  3922 PWs)   bands (ev):

   -72.8801 -42.3067 -41.5211 -41.0019 -10.6373 -10.4365 -10.2847 -10.0844
     0.7158   1.2097   1.8397   2.2729   2.5901   3.4960   3.8972   4.2687
     4.5468   4.7629   4.8123   5.3318   5.9852   6.8003   7.9312   9.9965
    10.1103  15.2982

          k =-0.5005-0.1170 0.6571 (  3914 PWs)   bands (ev):

   -72.8800 -42.3067 -41.5211 -41.0019 -10.6813 -10.4543 -10.2691 -10.0442
     0.9193   1.2283   1.9706   2.3790   2.5975   3.4235   3.6782   4.2294
     4.4045   4.5219   4.9172   5.1691   5.9815   6.9683   7.9168   9.8076
    10.0735  15.8433

          k =-0.4998-0.1182 0.0953 (  3922 PWs)   bands (ev):

   -72.8800 -42.3067 -41.5211 -41.0019 -10.7183 -10.4748 -10.2524 -10.0097
     1.0821   1.3422   2.2089   2.4487   2.6556   3.1081   3.3964   4.1522
     4.3539   4.4915   4.9049   5.0383   5.9722   7.0972   7.9060   9.5924
    10.0884  16.0923

     the Fermi energy is     7.0487 ev

!    total energy              =    -520.62075743 Ry
     total all-electron energy =     -3720.874016 Ry
     estimated scf accuracy    <          5.4E-09 Ry
     smearing contrib. (-TS)   =      -0.00493249 Ry
     internal energy E=F+TS    =    -520.61582495 Ry

     The total energy is F=E-TS. E is the sum of the following terms:
     one-electron contribution =    -240.58441584 Ry
     hartree contribution      =     145.36902005 Ry
     xc contribution           =     -61.25046837 Ry
     ewald contribution        =    -185.65391310 Ry
     Hubbard energy            =       0.24479075 Ry
     one-center paw contrib.   =    -178.74083845 Ry

     convergence has been achieved in   8 iterations
     force_hub    :    151.64s CPU     21.70s WALL (      10 calls)
     dndtau       :    133.31s CPU     19.21s WALL (    7560 calls)
     dprojdtau    :     20.31s CPU      3.05s WALL (    7560 calls)
     calc_doverla :     72.36s CPU     10.48s WALL (    7560 calls)
     matel_dSdtau :     97.73s CPU     13.84s WALL (   15120 calls)

     Forces acting on atoms (cartesian axes, Ry/au):

     atom    1 type  1   force =     0.00040250   -0.00022532    0.00020957
     atom    2 type  1   force =     0.00003401   -0.00044143   -0.00015073
     atom    3 type  3   force =    -0.00015931    0.00085186    0.00006968
     atom    4 type  2   force =    -0.00033286   -0.00008705    0.00031595
     atom    5 type  2   force =     0.00024141   -0.00073093    0.00028489
     atom    6 type  2   force =     0.00005150    0.00017622   -0.00078645
     atom    7 type  2   force =    -0.00023725    0.00045665    0.00005709

     Total force =     0.001745     Total SCF correction =     0.000123


     Computing stress (Cartesian axis) and pressure

     stres_hub    :    410.55s CPU     56.90s WALL (      10 calls)
     dprojdepsilo :    338.75s CPU     46.81s WALL (    3240 calls)
     dprojdeps1   :     33.95s CPU      4.96s WALL (    3240 calls)
     dprojdeps2   :    187.78s CPU     26.42s WALL (    3240 calls)
     dprojdeps3   :    116.98s CPU     15.42s WALL (    3240 calls)
          total   stress  (Ry/bohr**3)                   (kbar)     P=        0.11
   0.00000813  -0.00000137   0.00000095            1.20       -0.20        0.14
  -0.00000137   0.00000303  -0.00000014           -0.20        0.45       -0.02
   0.00000095  -0.00000014  -0.00000887            0.14       -0.02       -1.31

     Energy error            =      1.0E-05 Ry
     Gradient error          =      8.5E-04 Ry/Bohr
     Cell gradient error     =      1.3E+00 kbar

     number of scf cycles    =  10
     number of bfgs steps    =   9

     enthalpy           old  =    -520.6207471705 Ry
     enthalpy           new  =    -520.6207574329 Ry

     CASE: enthalpy          _new < enthalpy          _old

     new trust radius        =       0.0036925347 bohr
     new conv_thr            =       0.0000000100 Ry

     new unit-cell volume =    487.55214 a.u.^3 (    72.24777 Ang^3 )
     density =      3.85082 g/cm^3

CELL_PARAMETERS (angstrom)
   2.960778938  -0.003892280   0.004036663
   1.493649431   6.181954055  -0.011252888
   2.960299824   3.176902033   3.943179643

ATOMIC_POSITIONS (angstrom)
Mg               3.4369438280        4.7862305118        1.4554814929
Mg               3.4329731413        1.0989539421        0.3394654856
Mn               4.9131252398        2.3203829580        2.5382650077
O                3.4449688838        6.8928174680        1.8189829309
O                4.9145101272        4.2978710854        2.8660942397
O                3.4350242903        2.7852490480        1.3662057945
O                4.9235281987        8.3950818048        3.9001635935



     Writing config-only to output data dir .\out\\qgan.save\ :
     XML data file
     NEW-OLD atomic charge density approx. for the potential
     New effective cutoffs (rho, wfc):  493.31   61.67

     Check: negative core charge=   -0.000002

     Atomic wfc used for Hubbard projectors are orthogonalized


     total cpu time spent up to now is      550.3 secs

     Self-consistent Calculation

     iteration #  1     ecut=    60.00 Ry     beta= 0.70
     Davidson diagonalization with overlap
     ethr =  1.00E-06,  avg # of iterations =  5.3

     =================== HUBBARD OCCUPATIONS ===================
     ------------------------ ATOM    3 ------------------------
     Tr[ns(  3)] =   5.23713
     eigenvalues:
       0.219  0.312  0.399  0.713  0.975
     eigenvectors (columns):
       0.539  0.002  0.207  0.001 -0.816
      -0.001 -0.964 -0.002  0.265 -0.003
      -0.803  0.001  0.419 -0.001 -0.424
       0.254 -0.004  0.884 -0.001  0.392
       0.000 -0.265 -0.002 -0.964 -0.002
     occupation matrix ns (before diag.):
       0.731  0.002  0.277 -0.209  0.001
       0.002  0.340  0.001 -0.001 -0.103
       0.277  0.001  0.387 -0.059  0.001
      -0.209 -0.001 -0.059  0.476 -0.000
       0.001 -0.103  0.001 -0.000  0.685

     Number of occupied Hubbard levels =    5.2371

     Threshold (ethr) on eigenvalues was too large:
     Diagonalizing with lowered threshold

     Davidson diagonalization with overlap
     ethr =  1.08E-08,  avg # of iterations =  4.6

     total cpu time spent up to now is      556.7 secs

     total energy              =    -520.62076404 Ry
     estimated scf accuracy    <       0.00000536 Ry

     iteration #  2     ecut=    60.00 Ry     beta= 0.70
     Davidson diagonalization with overlap
     ethr =  1.25E-08,  avg # of iterations =  2.1

     total cpu time spent up to now is      559.2 secs

     total energy              =    -520.62076264 Ry
     estimated scf accuracy    <       0.00001092 Ry

     iteration #  3     ecut=    60.00 Ry     beta= 0.70
     Davidson diagonalization with overlap
     ethr =  1.25E-08,  avg # of iterations =  2.0

     total cpu time spent up to now is      561.4 secs

     total energy              =    -520.62076377 Ry
     estimated scf accuracy    <       0.00001411 Ry

     iteration #  4     ecut=    60.00 Ry     beta= 0.70
     Davidson diagonalization with overlap
     ethr =  1.25E-08,  avg # of iterations =  2.0

     total cpu time spent up to now is      563.6 secs

     total energy              =    -520.62076543 Ry
     estimated scf accuracy    <       0.00000164 Ry

     iteration #  5     ecut=    60.00 Ry     beta= 0.70
     Davidson diagonalization with overlap
     ethr =  3.82E-09,  avg # of iterations =  1.5

     total cpu time spent up to now is      565.9 secs

     total energy              =    -520.62076569 Ry
     estimated scf accuracy    <       0.00000010 Ry

     iteration #  6     ecut=    60.00 Ry     beta= 0.70
     Davidson diagonalization with overlap
     ethr =  2.37E-10,  avg # of iterations =  8.4

     total cpu time spent up to now is      569.4 secs

     total energy              =    -520.62076582 Ry
     estimated scf accuracy    <       0.00000010 Ry

     iteration #  7     ecut=    60.00 Ry     beta= 0.70
     Davidson diagonalization with overlap
     ethr =  2.26E-10,  avg # of iterations =  1.6

     total cpu time spent up to now is      571.6 secs

     total energy              =    -520.62076584 Ry
     estimated scf accuracy    <       0.00000002 Ry

     iteration #  8     ecut=    60.00 Ry     beta= 0.70
     Davidson diagonalization with overlap
     ethr =  5.18E-11,  avg # of iterations =  6.4

     total cpu time spent up to now is      574.4 secs

     total energy              =    -520.62076586 Ry
     estimated scf accuracy    <       0.00000002 Ry

     iteration #  9     ecut=    60.00 Ry     beta= 0.70
     Davidson diagonalization with overlap
     ethr =  3.93E-11,  avg # of iterations =  1.7

     total cpu time spent up to now is      576.6 secs

     total energy              =    -520.62076585 Ry
     estimated scf accuracy    <       0.00000001 Ry

     iteration # 10     ecut=    60.00 Ry     beta= 0.70
     Davidson diagonalization with overlap
     ethr =  2.89E-11,  avg # of iterations =  3.2

     total cpu time spent up to now is      579.1 secs

     End of self-consistent calculation

     =================== HUBBARD OCCUPATIONS ===================
     ------------------------ ATOM    3 ------------------------
     Tr[ns(  3)] =   5.23657
     eigenvalues:
       0.219  0.312  0.399  0.713  0.975
     eigenvectors (columns):
       0.538  0.002  0.207  0.001 -0.817
      -0.001 -0.964 -0.002  0.265 -0.003
      -0.804  0.001  0.418 -0.001 -0.423
       0.254 -0.004  0.884 -0.001  0.392
       0.000 -0.265 -0.002 -0.964 -0.002
     occupation matrix ns (before diag.):
       0.732  0.002  0.277 -0.209  0.001
       0.002  0.340  0.001 -0.001 -0.102
       0.277  0.001  0.386 -0.059  0.001
      -0.209 -0.001 -0.059  0.476 -0.000
       0.001 -0.102  0.001 -0.000  0.685

     Number of occupied Hubbard levels =    5.2366

          k = 0.0000 0.0000 0.0000 (  3893 PWs)   bands (ev):

   -72.8853 -42.3123 -41.5326 -40.9235 -11.8807 -10.5536 -10.2823 -10.0509
     0.8159   1.5014   2.2366   2.7014   3.0724   3.9243   4.1036   4.3684
     4.6215   5.4179   5.6273   5.6813   6.0630   7.1417   8.0030  10.0771
    10.3449  11.7313

          k =-0.0003 0.0004 0.1874 (  3890 PWs)   bands (ev):

   -72.8853 -42.3124 -41.5326 -40.9235 -11.6847 -10.7089 -10.3511 -10.0897
     1.0121   1.7991   1.9842   3.0742   3.0819   3.8860   4.0242   4.4796
     4.5970   4.9603   5.5757   5.6062   5.7653   7.0990   8.1048   9.7877
    10.3868  12.8474

          k = 0.0005-0.0008-0.3747 (  3892 PWs)   bands (ev):

   -72.8852 -42.3124 -41.5326 -40.9235 -11.3554 -10.9832 -10.4214 -10.1431
     1.2712   1.8252   2.5162   3.0185   3.0704   3.4874   3.8796   4.5453
     4.5698   4.8360   5.4829   5.5268   5.6338   7.0555   8.1873   9.5466
    10.4294  14.4587

          k = 0.0003 0.1193-0.0964 (  3887 PWs)   bands (ev):

   -72.8853 -42.3123 -41.5326 -40.9235 -11.7757 -10.5797 -10.4195 -10.0341
     1.0395   1.5181   2.1944   2.7983   3.1075   3.9453   4.1143   4.3153
     4.6885   5.0207   5.4900   5.6333   6.0677   7.1659   7.9957  10.1408
    10.3849  12.5210

          k = 0.0000 0.1197 0.0910 (  3903 PWs)   bands (ev):

   -72.8853 -42.3124 -41.5326 -40.9235 -11.7288 -10.7905 -10.2443 -10.0447
     0.9488   1.7979   2.1065   2.8958   3.0399   3.8077   3.9245   4.4847
     4.6162   5.2230   5.5848   5.5878   5.8398   7.1361   8.1004   9.7926
    10.3458  12.4959

          k = 0.0008 0.1185-0.4711 (  3919 PWs)   bands (ev):

   -72.8853 -42.3125 -41.5326 -40.9235 -11.4051 -11.0628 -10.3219 -10.0861
     1.3069   1.6522   2.4283   3.0387   3.1591   3.5113   3.9068   4.3365
     4.5880   5.0791   5.4412   5.5038   5.6789   7.0920   8.2033   9.5558
    10.3884  13.8606

          k = 0.0005 0.1189-0.2837 (  3898 PWs)   bands (ev):

   -72.8852 -42.3124 -41.5326 -40.9235 -11.5321 -10.7881 -10.4816 -10.0746
     1.2359   1.7918   2.2201   2.9718   3.1072   3.8327   3.9036   4.4344
     4.5028   4.9006   5.4501   5.5536   5.7730   7.1261   8.1245   9.8650
    10.4267  14.0917

          k =-0.0006-0.2387 0.1927 (  3906 PWs)   bands (ev):

   -72.8853 -42.3123 -41.5326 -40.9235 -11.6419 -10.6760 -10.5110 -10.0205
     1.0201   1.8596   2.4003   2.8249   3.1450   3.6051   3.9700   4.2573
     4.5773   4.9936   5.4798   5.5846   6.0694   7.1902   7.9869  10.2087
    10.4245  13.8340

          k =-0.0008-0.2383 0.3801 (  3904 PWs)   bands (ev):

   -72.8853 -42.3124 -41.5326 -40.9235 -11.5900 -10.8605 -10.3683 -10.0321
     1.3353   1.7518   2.0038   2.9101   3.0707   3.8065   3.9462   4.4381
     4.7381   4.8822   5.4349   5.5357   5.8079   7.1615   8.1300   9.8749
    10.3859  13.4205

          k =-0.0001-0.2395-0.1820 (  3896 PWs)   bands (ev):

   -72.8853 -42.3125 -41.5326 -40.9235 -11.4469 -11.1324 -10.2271 -10.0423
     1.1530   1.8251   2.3120   3.0087   3.0380   3.7140   3.9358   4.1006
     4.5990   5.1828   5.4869   5.5579   5.7302   7.1268   8.1694   9.5443
    10.3473  13.7662

          k = 0.2498-0.0606-0.1387 (  3908 PWs)   bands (ev):

   -72.8824 -42.3093 -41.5270 -40.9628 -11.3228 -10.5812 -10.2122 -10.0319
     1.4037   1.6784   2.1275   2.4353   2.7784   3.0183   3.8411   4.0116
     4.2854   5.0119   5.3001   5.5186   6.1192   6.9834   8.0256   9.6943
    10.1066  13.9388

          k = 0.2496-0.0602 0.0486 (  3889 PWs)   bands (ev):

   -72.8824 -42.3093 -41.5270 -40.9628 -11.4211 -10.4542 -10.2584  -9.9985
     1.4220   1.8168   2.0476   2.4459   2.8268   2.8673   3.7134   3.9956
     4.2921   5.0292   5.3842   5.5688   6.0458   7.0729   7.9538   9.7605
    10.0823  13.5889

          k = 0.2503-0.0614-0.5134 (  3915 PWs)   bands (ev):

   -72.8824 -42.3093 -41.5270 -40.9628 -11.2271 -10.5508 -10.3435 -10.0516
     1.3243   1.6861   2.2016   2.5555   2.6746   3.0109   4.0041   4.1264
     4.3907   4.9240   5.0549   5.4858   6.1618   6.9731   8.0218   9.6498
    10.0369  14.7113

          k = 0.2501-0.0610-0.3261 (  3914 PWs)   bands (ev):

   -72.8824 -42.3094 -41.5270 -40.9628 -11.0428 -10.7626 -10.2938 -10.0906
     1.3367   1.6536   2.0953   2.4478   2.7336   3.3595   3.9224   4.2069
     4.3896   4.8561   5.0000   5.4714   6.1835   6.8967   8.0893   9.8117
     9.8636  15.1009

          k = 0.2501 0.0587-0.2351 (  3915 PWs)   bands (ev):

   -72.8824 -42.3093 -41.5270 -40.9628 -11.2276 -10.5507 -10.3428 -10.0518
     1.3245   1.6865   2.2021   2.5534   2.6751   3.0107   4.0023   4.1262
     4.3918   4.9258   5.0537   5.4861   6.1620   6.9742   8.0212   9.6504
    10.0359  14.7093

          k = 0.2498 0.0591-0.0477 (  3893 PWs)   bands (ev):

   -72.8824 -42.3093 -41.5270 -40.9628 -11.4215 -10.4541 -10.2580  -9.9985
     1.4220   1.8165   2.0477   2.4454   2.8242   2.8700   3.7131   3.9947
     4.2934   5.0272   5.3866   5.5693   6.0450   7.0733   7.9537   9.7605
    10.0824  13.5878

          k = 0.2506 0.0579-0.6098 (  3905 PWs)   bands (ev):

   -72.8824 -42.3093 -41.5270 -40.9628 -11.3228 -10.5807 -10.2127 -10.0320
     1.4028   1.6790   2.1271   2.4344   2.7812   3.0166   3.8416   4.0125
     4.2857   5.0107   5.2991   5.5196   6.1198   6.9833   8.0257   9.6930
    10.1070  13.9407

          k = 0.2504 0.0583-0.4224 (  3913 PWs)   bands (ev):

   -72.8824 -42.3094 -41.5270 -40.9628 -11.0427 -10.7621 -10.2941 -10.0908
     1.3366   1.6533   2.0951   2.4478   2.7335   3.3607   3.9241   4.2062
     4.3879   4.8556   5.0005   5.4720   6.1839   6.8970   8.0888   9.8119
     9.8625  15.1018

          k = 0.2492-0.2993 0.0540 (  3919 PWs)   bands (ev):

   -72.8824 -42.3093 -41.5270 -40.9628 -11.1567 -10.6489 -10.3415 -10.0368
     1.4718   1.8462   2.1092   2.4682   2.6747   3.1220   3.7094   4.0406
     4.3817   4.8972   5.1135   5.5402   6.1549   6.9844   8.0354   9.6652
    10.1190  14.7150

          k = 0.2490-0.2989 0.2414 (  3910 PWs)   bands (ev):

   -72.8824 -42.3093 -41.5270 -40.9628 -11.2884 -10.4722 -10.4043 -10.0019
     1.3867   1.9736   2.2629   2.5109   2.6654   2.8929   3.5529   3.9532
     4.4812   4.9112   5.1601   5.5982   6.1149   7.0888   7.9407   9.7091
    10.0845  14.4987

          k = 0.2497-0.3001-0.3207 (  3906 PWs)   bands (ev):

   -72.8824 -42.3093 -41.5270 -40.9628 -11.2710 -10.6437 -10.2240 -10.0205
     1.6110   1.7855   1.9367   2.5643   2.7901   3.0514   3.5723   3.8898
     4.1563   5.0736   5.3513   5.5785   6.1089   6.9877   8.0363   9.7216
    10.1902  13.8669

          k = 0.2495-0.2997-0.1333 (  3915 PWs)   bands (ev):

   -72.8824 -42.3094 -41.5270 -40.9628 -11.0632 -10.8662 -10.1949 -10.0509
     1.5709   1.7196   1.9733   2.5679   2.7550   3.1054   3.5159   4.1744
     4.2951   4.8419   5.3185   5.5481   6.1560   6.8968   8.1011   9.9098
     9.9473  14.6186

          k = 0.2495-0.1800-0.0423 (  3909 PWs)   bands (ev):

   -72.8824 -42.3093 -41.5270 -40.9628 -11.2703 -10.6442 -10.2244 -10.0206
     1.6114   1.7859   1.9364   2.5669   2.7893   3.0489   3.5723   3.8901
     4.1575   5.0744   5.3486   5.5792   6.1094   6.9877   8.0357   9.7226
    10.1891  13.8669

          k = 0.2493-0.1796 0.1450 (  3918 PWs)   bands (ev):

   -72.8824 -42.3093 -41.5270 -40.9628 -11.2879 -10.4725 -10.4047 -10.0019
     1.3863   1.9733   2.2637   2.5132   2.6650   2.8922   3.5519   3.9537
     4.4808   4.9103   5.1613   5.5978   6.1150   7.0884   7.9408   9.7088
    10.0847  14.5009

          k = 0.2500-0.1808-0.4171 (  3919 PWs)   bands (ev):

   -72.8824 -42.3093 -41.5270 -40.9628 -11.1570 -10.6491 -10.3413 -10.0365
     1.4713   1.8467   2.1089   2.4695   2.6733   3.1234   3.7071   4.0422
     4.3812   4.8981   5.1138   5.5396   6.1539   6.9834   8.0362   9.6649
    10.1206  14.7134

          k = 0.2498-0.1804-0.2297 (  3905 PWs)   bands (ev):

   -72.8824 -42.3094 -41.5270 -40.9628 -11.0631 -10.8667 -10.1945 -10.0508
     1.5713   1.7191   1.9740   2.5687   2.7545   3.1051   3.5142   4.1756
     4.2950   4.8414   5.3204   5.5470   6.1554   6.8965   8.1016   9.9094
     9.9486  14.6183

          k =-0.4996 0.1212 0.2774 (  3922 PWs)   bands (ev):

   -72.8801 -42.3063 -41.5214 -41.0017 -10.6351 -10.4389 -10.2804 -10.0894
     0.7141   1.2103   1.8419   2.2759   2.5925   3.4969   3.8950   4.2672
     4.5411   4.7672   4.8136   5.3333   5.9830   6.8002   7.9329  10.0000
    10.1093  15.3033

          k =-0.4999 0.1216 0.4648 (  3917 PWs)   bands (ev):

   -72.8800 -42.3063 -41.5214 -41.0017 -10.6794 -10.4556 -10.2659 -10.0490
     0.9170   1.2291   1.9726   2.3799   2.6004   3.4240   3.6780   4.2289
     4.4057   4.5203   4.9190   5.1696   5.9796   6.9676   7.9176   9.8118
    10.0717  15.8397

          k =-0.4991 0.1204-0.0973 (  3934 PWs)   bands (ev):

   -72.8800 -42.3063 -41.5214 -41.0017 -10.7165 -10.4754 -10.2498 -10.0144
     1.0792   1.3427   2.2121   2.4509   2.6557   3.1083   3.3953   4.1576
     4.3522   4.4913   4.9042   5.0402   5.9705   7.0959   7.9061   9.5971
    10.0866  16.0902

          k =-0.4993 0.2406 0.1810 (  3926 PWs)   bands (ev):

   -72.8801 -42.3063 -41.5214 -41.0017 -10.6350 -10.4394 -10.2797 -10.0897
     0.7803   1.1114   1.8490   2.2748   2.5783   3.6497   3.8620   4.1999
     4.5352   4.7545   4.8247   5.3282   5.9817   6.8035   7.9271  10.0139
    10.0852  15.6083

          k =-0.4996 0.2410 0.3684 (  3920 PWs)   bands (ev):

   -72.8800 -42.3063 -41.5214 -41.0017 -10.6791 -10.4583 -10.2633 -10.0493
     0.9020   1.2660   1.9663   2.2370   2.8019   3.3431   3.6748   4.2132
     4.4100   4.5210   4.9313   5.1781   5.9778   6.9728   7.9171   9.8003
    10.0850  15.6345

          k =-0.4988 0.2398-0.1937 (  3909 PWs)   bands (ev):

   -72.8800 -42.3062 -41.5214 -41.0017 -10.7188 -10.4698 -10.2548 -10.0126
     1.0942   1.3112   2.1804   2.5378   2.6949   3.0052   3.4666   4.1325
     4.2881   4.4852   4.8831   5.1032   5.9748   7.1009   7.9063   9.6065
    10.0787  16.0464

          k =-0.4991 0.2402-0.0063 (  3921 PWs)   bands (ev):

   -72.8800 -42.3063 -41.5214 -41.0017 -10.6788 -10.4579 -10.2638 -10.0496
     0.9020   1.2657   1.9645   2.2370   2.8018   3.3437   3.6753   4.2148
     4.4118   4.5209   4.9311   5.1771   5.9781   6.9723   7.9167   9.8004
    10.0850  15.6302

          k =-0.5002-0.1175 0.4702 (  3922 PWs)   bands (ev):

   -72.8801 -42.3063 -41.5214 -41.0017 -10.6353 -10.4384 -10.2807 -10.0893
     0.7153   1.2094   1.8407   2.2738   2.5893   3.4981   3.8986   4.2693
     4.5432   4.7664   4.8138   5.3328   5.9832   6.8004   7.9318   9.9980
    10.1103  15.2990

          k =-0.5004-0.1171 0.6575 (  3914 PWs)   bands (ev):

   -72.8800 -42.3063 -41.5214 -41.0017 -10.6799 -10.4556 -10.2657 -10.0486
     0.9186   1.2285   1.9720   2.3786   2.5976   3.4245   3.6791   4.2298
     4.4052   4.5221   4.9191   5.1702   5.9796   6.9684   7.9170   9.8106
    10.0719  15.8425

          k =-0.4997-0.1183 0.0954 (  3922 PWs)   bands (ev):

   -72.8800 -42.3063 -41.5214 -41.0017 -10.7173 -10.4758 -10.2492 -10.0137
     1.0814   1.3424   2.2117   2.4496   2.6534   3.1088   3.3957   4.1563
     4.3522   4.4915   4.9061   5.0406   5.9703   7.0973   7.9059   9.5954
    10.0869  16.0930

     the Fermi energy is     7.0489 ev

!    total energy              =    -520.62076589 Ry
     total all-electron energy =     -3720.874024 Ry
     estimated scf accuracy    <          7.6E-09 Ry
     smearing contrib. (-TS)   =      -0.00493360 Ry
     internal energy E=F+TS    =    -520.61583229 Ry

     The total energy is F=E-TS. E is the sum of the following terms:
     one-electron contribution =    -240.58440365 Ry
     hartree contribution      =     145.36966634 Ry
     xc contribution           =     -61.25059085 Ry
     ewald contribution        =    -185.65444872 Ry
     Hubbard energy            =       0.24481521 Ry
     one-center paw contrib.   =    -178.74087063 Ry

     convergence has been achieved in  10 iterations
     force_hub    :    167.94s CPU     23.88s WALL (      11 calls)
     dndtau       :    147.73s CPU     21.15s WALL (    8316 calls)
     dprojdtau    :     22.75s CPU      3.33s WALL (    8316 calls)
     calc_doverla :     79.64s CPU     11.59s WALL (    8316 calls)
     matel_dSdtau :    108.22s CPU     15.23s WALL (   16632 calls)

     Forces acting on atoms (cartesian axes, Ry/au):

     atom    1 type  1   force =     0.00027139   -0.00036616    0.00021746
     atom    2 type  1   force =     0.00001835    0.00005911   -0.00009265
     atom    3 type  3   force =    -0.00006497    0.00071238   -0.00049170
     atom    4 type  2   force =    -0.00025590    0.00011919    0.00028792
     atom    5 type  2   force =     0.00018595   -0.00020043    0.00079625
     atom    6 type  2   force =    -0.00001510   -0.00044005   -0.00085942
     atom    7 type  2   force =    -0.00013973    0.00011596    0.00014213

     Total force =     0.001696     Total SCF correction =     0.000071


     Computing stress (Cartesian axis) and pressure

     stres_hub    :    451.88s CPU     62.38s WALL (      11 calls)
     dprojdepsilo :    372.98s CPU     51.28s WALL (    3564 calls)
     dprojdeps1   :     37.97s CPU      5.45s WALL (    3564 calls)
     dprojdeps2   :    208.50s CPU     28.92s WALL (    3564 calls)
     dprojdeps3   :    126.48s CPU     16.90s WALL (    3564 calls)
          total   stress  (Ry/bohr**3)                   (kbar)     P=        0.25
   0.00000467  -0.00000129   0.00000075            0.69       -0.19        0.11
  -0.00000129   0.00000453  -0.00000085           -0.19        0.67       -0.12
   0.00000075  -0.00000085  -0.00000401            0.11       -0.12       -0.59

     Energy error            =      8.5E-06 Ry
     Gradient error          =      8.6E-04 Ry/Bohr
     Cell gradient error     =      6.9E-01 kbar

     number of scf cycles    =  11
     number of bfgs steps    =  10

     enthalpy           old  =    -520.6207574329 Ry
     enthalpy           new  =    -520.6207658889 Ry

     CASE: enthalpy          _new < enthalpy          _old

     new trust radius        =       0.0024594456 bohr
     new conv_thr            =       0.0000000100 Ry

     new unit-cell volume =    487.61182 a.u.^3 (    72.25662 Ang^3 )
     density =      3.85035 g/cm^3

CELL_PARAMETERS (angstrom)
   2.961837232  -0.004267772   0.004310844
   1.493387393   6.183268436  -0.011042688
   2.961315941   3.177355299   3.941605617

ATOMIC_POSITIONS (angstrom)
Mg               3.4384988504        4.7868024629        1.4549081529
Mg               3.4341576264        1.0980938679        0.3399631573
Mn               4.9145280964        2.3211342128        2.5372899842
O                3.4448504742        6.8943033544        1.8195648501
O                4.9164077769        4.2971190797        2.8650441756
O                3.4361216137        2.7855957473        1.3647950504
O                4.9240888162        8.3975684403        3.8992511920



     Writing config-only to output data dir .\out\\qgan.save\ :
     XML data file
     NEW-OLD atomic charge density approx. for the potential
     New effective cutoffs (rho, wfc):  493.61   61.72

     Check: negative core charge=   -0.000002

     Atomic wfc used for Hubbard projectors are orthogonalized


     total cpu time spent up to now is      589.8 secs

     Self-consistent Calculation

     iteration #  1     ecut=    60.00 Ry     beta= 0.70
     Davidson diagonalization with overlap
     ethr =  1.00E-06,  avg # of iterations =  5.0

     =================== HUBBARD OCCUPATIONS ===================
     ------------------------ ATOM    3 ------------------------
     Tr[ns(  3)] =   5.23685
     eigenvalues:
       0.219  0.312  0.399  0.713  0.976
     eigenvectors (columns):
       0.538  0.002  0.207  0.001 -0.817
      -0.001 -0.964 -0.002  0.265 -0.003
      -0.804  0.001  0.418 -0.001 -0.423
       0.254 -0.004  0.884 -0.002  0.392
       0.000 -0.265 -0.002 -0.964 -0.002
     occupation matrix ns (before diag.):
       0.732  0.002  0.277 -0.209  0.001
       0.002  0.340  0.001 -0.001 -0.102
       0.277  0.001  0.386 -0.059  0.001
      -0.209 -0.001 -0.059  0.476 -0.000
       0.001 -0.102  0.001 -0.000  0.685

     Number of occupied Hubbard levels =    5.2369

     Threshold (ethr) on eigenvalues was too large:
     Diagonalizing with lowered threshold

     Davidson diagonalization with overlap
     ethr =  8.56E-09,  avg # of iterations =  5.7

     total cpu time spent up to now is      596.2 secs

     total energy              =    -520.62077012 Ry
     estimated scf accuracy    <       0.00000436 Ry

     iteration #  2     ecut=    60.00 Ry     beta= 0.70
     Davidson diagonalization with overlap
     ethr =  1.01E-08,  avg # of iterations =  2.2

     total cpu time spent up to now is      598.5 secs

     total energy              =    -520.62076919 Ry
     estimated scf accuracy    <       0.00000710 Ry

     iteration #  3     ecut=    60.00 Ry     beta= 0.70
     Davidson diagonalization with overlap
     ethr =  1.01E-08,  avg # of iterations =  2.0

     total cpu time spent up to now is      600.9 secs

     total energy              =    -520.62076987 Ry
     estimated scf accuracy    <       0.00000999 Ry

     iteration #  4     ecut=    60.00 Ry     beta= 0.70
     Davidson diagonalization with overlap
     ethr =  1.01E-08,  avg # of iterations =  2.0

     total cpu time spent up to now is      603.1 secs

     total energy              =    -520.62077105 Ry
     estimated scf accuracy    <       0.00000215 Ry

     iteration #  5     ecut=    60.00 Ry     beta= 0.70
     Davidson diagonalization with overlap
     ethr =  4.99E-09,  avg # of iterations =  1.2

     total cpu time spent up to now is      605.3 secs

     total energy              =    -520.62077133 Ry
     estimated scf accuracy    <       0.00000015 Ry

     iteration #  6     ecut=    60.00 Ry     beta= 0.70
     Davidson diagonalization with overlap
     ethr =  3.39E-10,  avg # of iterations =  7.6

     total cpu time spent up to now is      608.5 secs

     total energy              =    -520.62077147 Ry
     estimated scf accuracy    <       0.00000005 Ry

     iteration #  7     ecut=    60.00 Ry     beta= 0.70
     Davidson diagonalization with overlap
     ethr =  1.21E-10,  avg # of iterations =  3.1

     total cpu time spent up to now is      611.0 secs

     total energy              =    -520.62077149 Ry
     estimated scf accuracy    <       0.00000003 Ry

     iteration #  8     ecut=    60.00 Ry     beta= 0.70
     Davidson diagonalization with overlap
     ethr =  6.33E-11,  avg # of iterations =  2.2

     total cpu time spent up to now is      613.3 secs

     total energy              =    -520.62077150 Ry
     estimated scf accuracy    <       0.00000002 Ry

     iteration #  9     ecut=    60.00 Ry     beta= 0.70
     Davidson diagonalization with overlap
     ethr =  3.54E-11,  avg # of iterations =  2.2

     total cpu time spent up to now is      615.7 secs

     total energy              =    -520.62077147 Ry
     estimated scf accuracy    <       0.00000001 Ry

     iteration # 10     ecut=    60.00 Ry     beta= 0.70
     Davidson diagonalization with overlap
     ethr =  2.79E-11,  avg # of iterations =  3.2

     total cpu time spent up to now is      618.2 secs

     End of self-consistent calculation

     =================== HUBBARD OCCUPATIONS ===================
     ------------------------ ATOM    3 ------------------------
     Tr[ns(  3)] =   5.23652
     eigenvalues:
       0.219  0.312  0.399  0.713  0.976
     eigenvectors (columns):
       0.537 -0.002 -0.207  0.001 -0.818
      -0.001  0.964  0.002  0.264 -0.003
      -0.804 -0.001 -0.418 -0.000 -0.422
       0.254  0.004 -0.885 -0.002  0.391
       0.000  0.264  0.002 -0.964 -0.002
     occupation matrix ns (before diag.):
       0.733  0.002  0.277 -0.209  0.001
       0.002  0.340  0.001 -0.001 -0.102
       0.277  0.001  0.385 -0.058  0.001
      -0.209 -0.001 -0.058  0.476  0.000
       0.001 -0.102  0.001  0.000  0.685

     Number of occupied Hubbard levels =    5.2365

          k = 0.0000 0.0000 0.0000 (  3893 PWs)   bands (ev):

   -72.8873 -42.3140 -41.5349 -40.9254 -11.8812 -10.5533 -10.2831 -10.0532
     0.8161   1.4995   2.2380   2.7003   3.0720   3.9193   4.1016   4.3649
     4.6223   5.4175   5.6250   5.6774   6.0617   7.1398   8.0001  10.0763
    10.3412  11.7294

          k =-0.0003 0.0004 0.1874 (  3890 PWs)   bands (ev):

   -72.8873 -42.3141 -41.5349 -40.9254 -11.6849 -10.7087 -10.3528 -10.0915
     1.0127   1.7994   1.9825   3.0739   3.0814   3.8810   4.0230   4.4763
     4.5971   4.9608   5.5727   5.6019   5.7632   7.0972   8.1023   9.7866
    10.3830  12.8458

          k = 0.0005-0.0008-0.3749 (  3892 PWs)   bands (ev):

   -72.8872 -42.3141 -41.5350 -40.9254 -11.3547 -10.9836 -10.4237 -10.1445
     1.2713   1.8262   2.5172   3.0173   3.0699   3.4845   3.8747   4.5465
     4.5669   4.8337   5.4813   5.5220   5.6313   7.0538   8.1851   9.5451
    10.4256  14.4581

          k = 0.0003 0.1193-0.0964 (  3887 PWs)   bands (ev):

   -72.8873 -42.3140 -41.5349 -40.9254 -11.7761 -10.5797 -10.4201 -10.0363
     1.0396   1.5172   2.1949   2.7965   3.1071   3.9401   4.1144   4.3120
     4.6886   5.0201   5.4878   5.6294   6.0655   7.1641   7.9932  10.1404
    10.3812  12.5190

          k = 0.0000 0.1197 0.0910 (  3903 PWs)   bands (ev):

   -72.8873 -42.3141 -41.5349 -40.9254 -11.7293 -10.7901 -10.2458 -10.0464
     0.9495   1.7972   2.1072   2.8941   3.0394   3.8069   3.9195   4.4815
     4.6148   5.2213   5.5828   5.5837   5.8393   7.1343   8.0980   9.7919
    10.3422  12.4941

          k = 0.0009 0.1185-0.4713 (  3919 PWs)   bands (ev):

   -72.8873 -42.3141 -41.5350 -40.9254 -11.4050 -11.0628 -10.3239 -10.0875
     1.3076   1.6531   2.4295   3.0382   3.1559   3.5102   3.9018   4.3339
     4.5851   5.0790   5.4397   5.4991   5.6767   7.0903   8.2012   9.5548
    10.3847  13.8580

          k = 0.0006 0.1189-0.2839 (  3898 PWs)   bands (ev):

   -72.8872 -42.3141 -41.5350 -40.9254 -11.5320 -10.7884 -10.4829 -10.0765
     1.2363   1.7913   2.2205   2.9707   3.1068   3.8319   3.8986   4.4313
     4.5029   4.8993   5.4485   5.5493   5.7701   7.1243   8.1222   9.8642
    10.4229  14.0901

          k =-0.0006-0.2386 0.1928 (  3906 PWs)   bands (ev):

   -72.8873 -42.3140 -41.5350 -40.9254 -11.6421 -10.6772 -10.5106 -10.0227
     1.0196   1.8605   2.4008   2.8222   3.1448   3.6043   3.9645   4.2542
     4.5784   4.9927   5.4780   5.5807   6.0667   7.1884   7.9845  10.2087
    10.4207  13.8319

          k =-0.0009-0.2382 0.3803 (  3904 PWs)   bands (ev):

   -72.8873 -42.3141 -41.5349 -40.9254 -11.5903 -10.8602 -10.3696 -10.0340
     1.3364   1.7508   2.0048   2.9080   3.0703   3.8065   3.9411   4.4350
     4.7352   4.8815   5.4336   5.5315   5.8060   7.1597   8.1280   9.8746
    10.3822  13.4185

          k =-0.0001-0.2394-0.1821 (  3896 PWs)   bands (ev):

   -72.8873 -42.3141 -41.5349 -40.9254 -11.4475 -11.1318 -10.2290 -10.0435
     1.1541   1.8263   2.3135   3.0083   3.0346   3.7119   3.9308   4.0977
     4.5960   5.1809   5.4823   5.5563   5.7301   7.1251   8.1673   9.5441
    10.3436  13.7626

          k = 0.2497-0.0606-0.1388 (  3908 PWs)   bands (ev):

   -72.8844 -42.3110 -41.5294 -40.9645 -11.3235 -10.5813 -10.2128 -10.0354
     1.4032   1.6768   2.1273   2.4342   2.7789   3.0159   3.8385   4.0106
     4.2830   5.0111   5.3001   5.5157   6.1177   6.9815   8.0230   9.6919
    10.1045  13.9374

          k = 0.2495-0.0602 0.0486 (  3889 PWs)   bands (ev):

   -72.8844 -42.3110 -41.5293 -40.9645 -11.4221 -10.4542 -10.2588 -10.0020
     1.4212   1.8158   2.0457   2.4457   2.8257   2.8673   3.7119   3.9921
     4.2909   5.0280   5.3848   5.5662   6.0440   7.0711   7.9510   9.7582
    10.0803  13.5866

          k = 0.2503-0.0614-0.5137 (  3915 PWs)   bands (ev):

   -72.8844 -42.3110 -41.5294 -40.9645 -11.2275 -10.5511 -10.3446 -10.0547
     1.3232   1.6847   2.2018   2.5547   2.6738   3.0095   4.0018   4.1238
     4.3904   4.9240   5.0538   5.4828   6.1601   6.9708   8.0193   9.6476
    10.0350  14.7088

          k = 0.2500-0.0610-0.3262 (  3914 PWs)   bands (ev):

   -72.8844 -42.3110 -41.5294 -40.9645 -11.0423 -10.7636 -10.2953 -10.0935
     1.3352   1.6525   2.0957   2.4473   2.7322   3.3591   3.9210   4.2041
     4.3876   4.8560   4.9986   5.4686   6.1819   6.8945   8.0869   9.8107
     9.8602  15.0984

          k = 0.2500 0.0588-0.2352 (  3915 PWs)   bands (ev):

   -72.8844 -42.3110 -41.5294 -40.9645 -11.2278 -10.5511 -10.3441 -10.0548
     1.3235   1.6849   2.2023   2.5529   2.6743   3.0095   4.0004   4.1236
     4.3911   4.9254   5.0530   5.4829   6.1603   6.9719   8.0187   9.6482
    10.0342  14.7072

          k = 0.2498 0.0592-0.0478 (  3893 PWs)   bands (ev):

   -72.8844 -42.3110 -41.5293 -40.9645 -11.4223 -10.4542 -10.2585 -10.0020
     1.4212   1.8156   2.0457   2.4454   2.8237   2.8693   3.7117   3.9915
     4.2917   5.0266   5.3866   5.5666   6.0434   7.0714   7.9509   9.7582
    10.0803  13.5858

          k = 0.2506 0.0580-0.6101 (  3905 PWs)   bands (ev):

   -72.8844 -42.3110 -41.5293 -40.9645 -11.3235 -10.5809 -10.2132 -10.0354
     1.4025   1.6772   2.1271   2.4334   2.7811   3.0147   3.8389   4.0114
     4.2832   5.0102   5.2992   5.5166   6.1183   6.9813   8.0232   9.6909
    10.1048  13.9387

          k = 0.2503 0.0584-0.4227 (  3913 PWs)   bands (ev):

   -72.8844 -42.3110 -41.5294 -40.9645 -11.0423 -10.7632 -10.2955 -10.0937
     1.3352   1.6523   2.0956   2.4474   2.7321   3.3599   3.9223   4.2035
     4.3864   4.8556   4.9988   5.4691   6.1823   6.8948   8.0866   9.8110
     9.8594  15.0989

          k = 0.2491-0.2992 0.0540 (  3919 PWs)   bands (ev):

   -72.8844 -42.3110 -41.5294 -40.9645 -11.1571 -10.6494 -10.3426 -10.0398
     1.4707   1.8452   2.1099   2.4667   2.6739   3.1210   3.7073   4.0388
     4.3803   4.8966   5.1120   5.5371   6.1530   6.9823   8.0332   9.6632
    10.1178  14.7120

          k = 0.2488-0.2988 0.2415 (  3910 PWs)   bands (ev):

   -72.8844 -42.3110 -41.5294 -40.9645 -11.2889 -10.4728 -10.4049 -10.0050
     1.3852   1.9734   2.2629   2.5099   2.6650   2.8911   3.5505   3.9507
     4.4810   4.9106   5.1591   5.5951   6.1130   7.0867   7.9383   9.7067
    10.0834  14.4964

          k = 0.2496-0.3000-0.3209 (  3906 PWs)   bands (ev):

   -72.8844 -42.3110 -41.5293 -40.9645 -11.2717 -10.6437 -10.2248 -10.0238
     1.6104   1.7847   1.9357   2.5650   2.7888   3.0495   3.5699   3.8887
     4.1539   5.0718   5.3512   5.5757   6.1075   6.9858   8.0340   9.7196
    10.1882  13.8651

          k = 0.2494-0.2996-0.1334 (  3915 PWs)   bands (ev):

   -72.8844 -42.3111 -41.5294 -40.9645 -11.0636 -10.8667 -10.1957 -10.0540
     1.5703   1.7184   1.9737   2.5675   2.7538   3.1042   3.5131   4.1716
     4.2928   4.8416   5.3180   5.5451   6.1545   6.8949   8.0991   9.9088
     9.9446  14.6160

          k = 0.2494-0.1799-0.0424 (  3909 PWs)   bands (ev):

   -72.8844 -42.3110 -41.5294 -40.9645 -11.2712 -10.6441 -10.2250 -10.0238
     1.6108   1.7850   1.9356   2.5668   2.7881   3.0475   3.5700   3.8887
     4.1550   5.0722   5.3494   5.5762   6.1078   6.9859   8.0335   9.7203
    10.1875  13.8651

          k = 0.2491-0.1795 0.1451 (  3918 PWs)   bands (ev):

   -72.8844 -42.3110 -41.5294 -40.9645 -11.2885 -10.4731 -10.4051 -10.0050
     1.3850   1.9732   2.2634   2.5117   2.6645   2.8906   3.5497   3.9511
     4.4807   4.9100   5.1599   5.5947   6.1131   7.0863   7.9383   9.7065
    10.0835  14.4979

          k = 0.2500-0.1807-0.4173 (  3919 PWs)   bands (ev):

   -72.8844 -42.3110 -41.5294 -40.9645 -11.1573 -10.6495 -10.3424 -10.0396
     1.4700   1.8456   2.1097   2.4677   2.6730   3.1220   3.7058   4.0401
     4.3798   4.8973   5.1123   5.5367   6.1524   6.9814   8.0340   9.6628
    10.1189  14.7111

          k = 0.2497-0.1803-0.2298 (  3905 PWs)   bands (ev):

   -72.8844 -42.3111 -41.5293 -40.9645 -11.0635 -10.8671 -10.1955 -10.0539
     1.5706   1.7180   1.9742   2.5680   2.7537   3.1041   3.5119   4.1726
     4.2926   4.8413   5.3194   5.5442   6.1541   6.8946   8.0994   9.9085
     9.9455  14.6159

          k =-0.4995 0.1211 0.2776 (  3922 PWs)   bands (ev):

   -72.8821 -42.3080 -41.5238 -41.0032 -10.6348 -10.4400 -10.2800 -10.0955
     0.7126   1.2098   1.8414   2.2744   2.5895   3.4977   3.8965   4.2671
     4.5379   4.7667   4.8119   5.3326   5.9788   6.7981   7.9309   9.9981
    10.1068  15.3011

          k =-0.4997 0.1215 0.4650 (  3917 PWs)   bands (ev):

   -72.8820 -42.3080 -41.5238 -41.0033 -10.6798 -10.4567 -10.2655 -10.0545
     0.9157   1.2289   1.9722   2.3780   2.5986   3.4240   3.6780   4.2285
     4.4043   4.5191   4.9182   5.1683   5.9755   6.9658   7.9155   9.8117
    10.0671  15.8385

          k =-0.4989 0.1203-0.0973 (  3934 PWs)   bands (ev):

   -72.8820 -42.3080 -41.5238 -41.0033 -10.7173 -10.4766 -10.2492 -10.0195
     1.0785   1.3423   2.2129   2.4494   2.6526   3.1068   3.3952   4.1577
     4.3501   4.4904   4.9030   5.0395   5.9664   7.0943   7.9037   9.5969
    10.0821  16.0889

          k =-0.4991 0.2404 0.1812 (  3926 PWs)   bands (ev):

   -72.8821 -42.3080 -41.5238 -41.0032 -10.6347 -10.4406 -10.2793 -10.0959
     0.7785   1.1112   1.8488   2.2733   2.5768   3.6504   3.8616   4.2001
     4.5320   4.7538   4.8231   5.3278   5.9776   6.8014   7.9253  10.0124
    10.0824  15.6066

          k =-0.4994 0.2408 0.3686 (  3920 PWs)   bands (ev):

   -72.8820 -42.3080 -41.5238 -41.0033 -10.6794 -10.4593 -10.2630 -10.0549
     0.9005   1.2657   1.9656   2.2356   2.8004   3.3429   3.6747   4.2131
     4.4086   4.5199   4.9300   5.1768   5.9738   6.9708   7.9150   9.8003
    10.0806  15.6323

          k =-0.4986 0.2396-0.1937 (  3909 PWs)   bands (ev):

   -72.8820 -42.3079 -41.5238 -41.0033 -10.7195 -10.4708 -10.2545 -10.0177
     1.0930   1.3110   2.1808   2.5364   2.6926   3.0041   3.4662   4.1330
     4.2858   4.4840   4.8824   5.1019   5.9707   7.0991   7.9039   9.6066
    10.0741  16.0448

          k =-0.4989 0.2400-0.0063 (  3921 PWs)   bands (ev):

   -72.8820 -42.3080 -41.5238 -41.0033 -10.6791 -10.4591 -10.2632 -10.0551
     0.9007   1.2654   1.9644   2.2355   2.8005   3.3433   3.6751   4.2138
     4.4100   4.5200   4.9297   5.1761   5.9740   6.9705   7.9147   9.8003
    10.0806  15.6291

          k =-0.5001-0.1175 0.4704 (  3922 PWs)   bands (ev):

   -72.8821 -42.3080 -41.5238 -41.0032 -10.6350 -10.4397 -10.2801 -10.0955
     0.7136   1.2090   1.8405   2.2732   2.5873   3.4987   3.8989   4.2684
     4.5394   4.7662   4.8120   5.3323   5.9790   6.7983   7.9302   9.9965
    10.1075  15.2978

          k =-0.5003-0.1171 0.6579 (  3914 PWs)   bands (ev):

   -72.8820 -42.3080 -41.5238 -41.0033 -10.6802 -10.4567 -10.2654 -10.0542
     0.9168   1.2284   1.9718   2.3771   2.5965   3.4244   3.6789   4.2288
     4.4040   4.5204   4.9183   5.1687   5.9755   6.9664   7.9150   9.8109
    10.0673  15.8402

          k =-0.4995-0.1183 0.0955 (  3922 PWs)   bands (ev):

   -72.8820 -42.3080 -41.5238 -41.0033 -10.7179 -10.4768 -10.2488 -10.0190
     1.0800   1.3421   2.2126   2.4487   2.6509   3.1073   3.3953   4.1569
     4.3499   4.4907   4.9043   5.0399   5.9663   7.0953   7.9035   9.5959
    10.0823  16.0914

     the Fermi energy is     7.0469 ev

!    total energy              =    -520.62077153 Ry
     total all-electron energy =     -3720.874030 Ry
     estimated scf accuracy    <          5.5E-09 Ry
     smearing contrib. (-TS)   =      -0.00493074 Ry
     internal energy E=F+TS    =    -520.61584079 Ry

     The total energy is F=E-TS. E is the sum of the following terms:
     one-electron contribution =    -240.57851557 Ry
     hartree contribution      =     145.36405345 Ry
     xc contribution           =     -61.25004631 Ry
     ewald contribution        =    -185.65530010 Ry
     Hubbard energy            =       0.24481320 Ry
     one-center paw contrib.   =    -178.74084546 Ry

     convergence has been achieved in  10 iterations
     force_hub    :    183.30s CPU     26.08s WALL (      12 calls)
     dndtau       :    161.45s CPU     23.07s WALL (    9072 calls)
     dprojdtau    :     24.69s CPU      3.61s WALL (    9072 calls)
     calc_doverla :     87.00s CPU     12.66s WALL (    9072 calls)
     matel_dSdtau :    118.34s CPU     16.56s WALL (   18144 calls)

     Forces acting on atoms (cartesian axes, Ry/au):

     atom    1 type  1   force =     0.00015577   -0.00035552    0.00012294
     atom    2 type  1   force =     0.00001714    0.00014883    0.00010856
     atom    3 type  3   force =    -0.00002057    0.00044640   -0.00064839
     atom    4 type  2   force =    -0.00018788    0.00029771    0.00029598
     atom    5 type  2   force =     0.00012676    0.00011824    0.00078926
     atom    6 type  2   force =    -0.00003820   -0.00055975   -0.00075159
     atom    7 type  2   force =    -0.00005303   -0.00009591    0.00008323

     Total force =     0.001607     Total SCF correction =     0.000040


     Computing stress (Cartesian axis) and pressure

     stres_hub    :    493.97s CPU     67.82s WALL (      12 calls)
     dprojdepsilo :    407.55s CPU     55.71s WALL (    3888 calls)
     dprojdeps1   :     41.39s CPU      5.93s WALL (    3888 calls)
     dprojdeps2   :    229.20s CPU     31.40s WALL (    3888 calls)
     dprojdeps3   :    136.92s CPU     18.36s WALL (    3888 calls)
          total   stress  (Ry/bohr**3)                   (kbar)     P=        0.01
  -0.00000168  -0.00000102   0.00000043           -0.25       -0.15        0.06
  -0.00000102   0.00000315  -0.00000127           -0.15        0.46       -0.19
   0.00000043  -0.00000127  -0.00000135            0.06       -0.19       -0.20

     Energy error            =      5.6E-06 Ry
     Gradient error          =      7.9E-04 Ry/Bohr
     Cell gradient error     =      4.6E-01 kbar

     bfgs converged in  12 scf cycles and  11 bfgs steps
     (criteria: energy <  1.0E-04 Ry, force <  1.0E-03 Ry/Bohr, cell <  5.0E-01 kbar)

     End of BFGS Geometry Optimization

     Final enthalpy           =    -520.6207715308 Ry

     File .\out\\qgan.bfgs deleted, as requested
Begin final coordinates
     new unit-cell volume =    487.61182 a.u.^3 (    72.25662 Ang^3 )
     density =      3.85035 g/cm^3

CELL_PARAMETERS (angstrom)
   2.961837232  -0.004267772   0.004310844
   1.493387393   6.183268436  -0.011042688
   2.961315941   3.177355299   3.941605617

ATOMIC_POSITIONS (angstrom)
Mg               3.4384988504        4.7868024629        1.4549081529
Mg               3.4341576264        1.0980938679        0.3399631573
Mn               4.9145280964        2.3211342128        2.5372899842
O                3.4448504742        6.8943033544        1.8195648501
O                4.9164077769        4.2971190797        2.8650441756
O                3.4361216137        2.7855957473        1.3647950504
O                4.9240888162        8.3975684403        3.8992511920
End final coordinates



     Writing config-only to output data dir .\out\\qgan.save\ :
     XML data file

     Final scf calculation at the relaxed structure.
     The G-vectors are recalculated for the final unit cell
     Results may differ from those at the preceding step.
 
     G-vector sticks info
     --------------------
     sticks:   dense  smooth     PW     G-vecs:    dense   smooth      PW
     Sum        2497    1245    391                86621    30623    5425
 
     Using Slab Decomposition
 


     bravais-lattice index     =            0
     lattice parameter (alat)  =       5.5883  a.u.
     unit-cell volume          =     487.6118 (a.u.)^3
     number of atoms/cell      =            7
     number of atomic types    =            3
     number of electrons       =        43.00
     number of Kohn-Sham states=           26
     kinetic-energy cutoff     =      60.0000  Ry
     charge density cutoff     =     480.0000  Ry
     scf convergence threshold =      1.0E-08
     mixing beta               =       0.7000
     number of iterations used =            8  plain     mixing
     press convergence thresh. =      5.0E-01
     Exchange-correlation= SLA  PW   PBX  PBC
                           (   1   4   3   4   0   0   0)
     Hubbard projectors: ortho-atomic
     Hubbard parameters of DFT+U (Dudarev formulation) in eV:
     U(Mn-3d) =  3.9000

     Internal variables: lda_plus_u = T, lda_plus_u_kind = 0

     Internal variables: orbital_resolved = F, hub_pot_fix = F, apply_U =  F

     celldm(1)=   5.588342  celldm(2)=   0.000000  celldm(3)=   0.000000
     celldm(4)=   0.000000  celldm(5)=   0.000000  celldm(6)=   0.000000

     crystal axes: (cart. coord. in units of alat)
               a(1) = (   1.001560  -0.001443   0.001458 )  
               a(2) = (   0.504997   2.090904  -0.003734 )  
               a(3) = (   1.001384   1.074439   1.332874 )  

     reciprocal axes: (cart. coord. in units 2 pi/alat)
               b(1) = (  0.998901 -0.242247 -0.555194 )  
               b(2) = (  0.001249  0.477272 -0.385670 )  
               b(3) = ( -0.001089  0.001602  0.749785 )  


     PseudoPot. # 1 for Mg read from file:
     ..\..\pseudo\\Mg.pbe-n-kjpaw_psl.0.3.0.UPF
     MD5 check sum: d3e4124f57d03672d8f0e29aa18e2cc4
     Pseudo is Projector augmented-wave + core cor, Zval =  2.0
     Generated using &quot;atomic&quot; code by A. Dal Corso  v.6.3
     Shape of augmentation charge: PSQ
     Using radial grid of 1129 points,  4 beta functions with: 
                l(1) =   0
                l(2) =   0
                l(3) =   1
                l(4) =   1
     Q(r) pseudized with 0 coefficients 


     PseudoPot. # 2 for O  read from file:
     ..\..\pseudo\\O.pbe-n-kjpaw_psl.1.0.0.UPF
     MD5 check sum: e99d9cef9b487d1ca56f5b95ecd0fd7a
     Pseudo is Projector augmented-wave + core cor, Zval =  6.0
     Generated using &quot;atomic&quot; code by A. Dal Corso  v.6.3
     Shape of augmentation charge: PSQ
     Using radial grid of 1095 points,  4 beta functions with: 
                l(1) =   0
                l(2) =   0
                l(3) =   1
                l(4) =   1
     Q(r) pseudized with 0 coefficients 


     PseudoPot. # 3 for Mn read from file:
     ..\..\pseudo\\Mn.pbe-spn-kjpaw_psl.0.3.1.UPF
     MD5 check sum: ba19e6d7ccbc12830efad05ba8577d9c
     Pseudo is Projector augmented-wave + core cor, Zval = 15.0
     Generated using &quot;atomic&quot; code by A. Dal Corso  v.6.2.2
     Shape of augmentation charge: PSQ
     Using radial grid of 1187 points,  6 beta functions with: 
                l(1) =   0
                l(2) =   0
                l(3) =   1
                l(4) =   1
                l(5) =   2
                l(6) =   2
     Q(r) pseudized with 0 coefficients 


     atomic species   valence    mass     pseudopotential
     Mg                2.00    24.30500     Mg( 1.00)
     O                 6.00    15.99900     O ( 1.00)
     Mn               15.00    54.93800     Mn( 1.00)

     No symmetry found



   Cartesian axes

     site n.     atom                  positions (alat units)
         1        Mg     tau(   1) = (   1.1627459   1.6186816   0.4919846  )
         2        Mg     tau(   2) = (   1.1612779   0.3713260   0.1149603  )
         3        Mn     tau(   3) = (   1.6618727   0.7849033   0.8579975  )
         4        O      tau(   4) = (   1.1648937   2.3313437   0.6152951  )
         5        O      tau(   5) = (   1.6625083   1.4530927   0.9688293  )
         6        O      tau(   6) = (   1.1619420   0.9419634   0.4615124  )
         7        O      tau(   7) = (   1.6651057   2.8396805   1.3185516  )

     number of k points=    36  Marzari-Vanderbilt smearing, width (Ry)=  0.0200
                       cart. coord. in units 2pi/alat
        k(    1) = (   0.0000000   0.0000000   0.0000000), wk =   0.0312500
        k(    2) = (  -0.0002722   0.0004005   0.1874463), wk =   0.0625000
        k(    3) = (   0.0005445  -0.0008010  -0.3748926), wk =   0.0312500
        k(    4) = (   0.0003123   0.1193179  -0.0964176), wk =   0.0625000
        k(    5) = (   0.0000400   0.1197184   0.0910287), wk =   0.0625000
        k(    6) = (   0.0008567   0.1185169  -0.4713102), wk =   0.0625000
        k(    7) = (   0.0005845   0.1189174  -0.2838639), wk =   0.0625000
        k(    8) = (  -0.0006245  -0.2386358   0.1928352), wk =   0.0312500
        k(    9) = (  -0.0008968  -0.2382353   0.3802815), wk =   0.0625000
        k(   10) = (  -0.0000800  -0.2394369  -0.1820574), wk =   0.0312500
        k(   11) = (   0.2497253  -0.0605617  -0.1387986), wk =   0.0625000
        k(   12) = (   0.2494530  -0.0601612   0.0486477), wk =   0.0625000
        k(   13) = (   0.2502698  -0.0613627  -0.5136912), wk =   0.0625000
        k(   14) = (   0.2499975  -0.0609622  -0.3262449), wk =   0.0625000
        k(   15) = (   0.2500375   0.0587562  -0.2352162), wk =   0.0625000
        k(   16) = (   0.2497653   0.0591567  -0.0477699), wk =   0.0625000
        k(   17) = (   0.2505820   0.0579552  -0.6101088), wk =   0.0625000
        k(   18) = (   0.2503098   0.0583557  -0.4226625), wk =   0.0625000
        k(   19) = (   0.2491008  -0.2991975   0.0540366), wk =   0.0625000
        k(   20) = (   0.2488285  -0.2987970   0.2414829), wk =   0.0625000
        k(   21) = (   0.2496452  -0.2999986  -0.3208560), wk =   0.0625000
        k(   22) = (   0.2493730  -0.2995981  -0.1334097), wk =   0.0625000
        k(   23) = (   0.2494130  -0.1798796  -0.0423810), wk =   0.0625000
        k(   24) = (   0.2491408  -0.1794791   0.1450653), wk =   0.0625000
        k(   25) = (   0.2499575  -0.1806807  -0.4172736), wk =   0.0625000
        k(   26) = (   0.2496853  -0.1802801  -0.2298273), wk =   0.0625000
        k(   27) = (  -0.4994506   0.1211234   0.2775972), wk =   0.0312500
        k(   28) = (  -0.4997228   0.1215239   0.4650435), wk =   0.0625000
        k(   29) = (  -0.4989061   0.1203224  -0.0972954), wk =   0.0312500
        k(   30) = (  -0.4991383   0.2404413   0.1811796), wk =   0.0625000
        k(   31) = (  -0.4994105   0.2408418   0.3686259), wk =   0.0625000
        k(   32) = (  -0.4985938   0.2396403  -0.1937130), wk =   0.0625000
        k(   33) = (  -0.4988661   0.2400408  -0.0062667), wk =   0.0625000
        k(   34) = (  -0.5000751  -0.1175124   0.4704324), wk =   0.0312500
        k(   35) = (  -0.5003473  -0.1171119   0.6578787), wk =   0.0625000
        k(   36) = (  -0.4995306  -0.1183134   0.0955398), wk =   0.0312500

     Dense  grid:    86621 G-vectors     FFT dimensions: (  40,  90,  80)

     Smooth grid:    30623 G-vectors     FFT dimensions: (  27,  60,  60)

     Estimated max dynamical RAM per process >     409.73 MB

     Check: negative core charge=   -0.000002

     Initial potential from superposition of free atoms

     starting charge      42.9976, renormalised to      43.0000

     STARTING HUBBARD OCCUPATIONS:

     =================== HUBBARD OCCUPATIONS ===================
     ------------------------ ATOM    3 ------------------------
     Tr[ns(  3)] =   5.00000
     eigenvalues:
       0.500  0.500  0.500  0.500  0.500
     eigenvectors (columns):
       1.000  0.000  0.000  0.000  0.000
       0.000  1.000  0.000  0.000  0.000
       0.000  0.000  1.000  0.000  0.000
       0.000  0.000  0.000  1.000  0.000
       0.000  0.000  0.000  0.000  1.000
     occupation matrix ns (before diag.):
       0.500  0.000  0.000  0.000  0.000
       0.000  0.500  0.000  0.000  0.000
       0.000  0.000  0.500  0.000  0.000
       0.000  0.000  0.000  0.500  0.000
       0.000  0.000  0.000  0.000  0.500

     Number of occupied Hubbard levels =    5.0000

     Atomic wfc used for Hubbard projectors are orthogonalized

     Starting wfcs are   34 randomized atomic wfcs
     Checking if some PAW data can be deallocated... 

     total cpu time spent up to now is      629.7 secs

     Self-consistent Calculation

     iteration #  1     ecut=    60.00 Ry     beta= 0.70
     Davidson diagonalization with overlap
     c_bands:  1 eigenvalues not converged
     c_bands:  1 eigenvalues not converged
     c_bands:  1 eigenvalues not converged
     c_bands:  1 eigenvalues not converged
     c_bands:  1 eigenvalues not converged
     c_bands:  1 eigenvalues not converged
     c_bands:  1 eigenvalues not converged
     c_bands:  1 eigenvalues not converged
     c_bands:  1 eigenvalues not converged
     ethr =  1.00E-06,  avg # of iterations = 37.1

     =================== HUBBARD OCCUPATIONS ===================
     ------------------------ ATOM    3 ------------------------
     Tr[ns(  3)] =   4.09860
     eigenvalues:
       0.088  0.177  0.225  0.576  0.983
     eigenvectors (columns):
       0.536 -0.001  0.261 -0.000 -0.803
      -0.000  0.965 -0.004  0.261 -0.003
      -0.804 -0.000  0.450  0.001 -0.390
       0.260  0.005  0.854 -0.003  0.450
      -0.002  0.261 -0.003 -0.965 -0.002
     occupation matrix ns (before diag.):
       0.675  0.002  0.296 -0.293  0.002
       0.002  0.205  0.001 -0.002 -0.101
       0.296  0.001  0.252 -0.105  0.000
      -0.293 -0.002 -0.105  0.369  0.000
       0.002 -0.101  0.000  0.000  0.549

     Number of occupied Hubbard levels =    4.0986

     total cpu time spent up to now is      642.6 secs

     total energy              =    -519.25188393 Ry
     estimated scf accuracy    <       2.43808916 Ry

     iteration #  2     ecut=    60.00 Ry     beta= 0.70
     Davidson diagonalization with overlap
     ethr =  5.67E-03,  avg # of iterations =  4.1

     total cpu time spent up to now is      645.5 secs

     total energy              =    -517.66385193 Ry
     estimated scf accuracy    <      30.63244096 Ry

     iteration #  3     ecut=    60.00 Ry     beta= 0.70
     Davidson diagonalization with overlap
     ethr =  5.67E-03,  avg # of iterations =  3.2

     total cpu time spent up to now is      648.1 secs

     total energy              =    -520.50508377 Ry
     estimated scf accuracy    <       0.60139483 Ry

     iteration #  4     ecut=    60.00 Ry     beta= 0.70
     Davidson diagonalization with overlap
     ethr =  1.40E-03,  avg # of iterations =  2.1

     total cpu time spent up to now is      650.5 secs

     total energy              =    -520.57447206 Ry
     estimated scf accuracy    <       0.10592737 Ry

     iteration #  5     ecut=    60.00 Ry     beta= 0.70
     Davidson diagonalization with overlap
     ethr =  2.46E-04,  avg # of iterations =  4.1

     total cpu time spent up to now is      653.2 secs

     total energy              =    -520.60923377 Ry
     estimated scf accuracy    <       0.03469955 Ry

     iteration #  6     ecut=    60.00 Ry     beta= 0.70
     Davidson diagonalization with overlap
     ethr =  8.07E-05,  avg # of iterations =  2.2

     total cpu time spent up to now is      655.4 secs

     total energy              =    -520.61740438 Ry
     estimated scf accuracy    <       0.01812227 Ry

     iteration #  7     ecut=    60.00 Ry     beta= 0.70
     Davidson diagonalization with overlap
     ethr =  4.21E-05,  avg # of iterations =  2.0

     total cpu time spent up to now is      657.7 secs

     total energy              =    -520.61797921 Ry
     estimated scf accuracy    <       0.00611729 Ry

     iteration #  8     ecut=    60.00 Ry     beta= 0.70
     Davidson diagonalization with overlap
     ethr =  1.42E-05,  avg # of iterations =  2.0

     total cpu time spent up to now is      660.1 secs

     total energy              =    -520.61954280 Ry
     estimated scf accuracy    <       0.00185456 Ry

     iteration #  9     ecut=    60.00 Ry     beta= 0.70
     Davidson diagonalization with overlap
     ethr =  4.31E-06,  avg # of iterations =  7.2

     total cpu time spent up to now is      663.0 secs

     total energy              =    -520.62015931 Ry
     estimated scf accuracy    <       0.00048154 Ry

     iteration # 10     ecut=    60.00 Ry     beta= 0.70
     Davidson diagonalization with overlap
     ethr =  1.12E-06,  avg # of iterations =  4.9

     total cpu time spent up to now is      665.6 secs

     total energy              =    -520.62021559 Ry
     estimated scf accuracy    <       0.00013457 Ry

     iteration # 11     ecut=    60.00 Ry     beta= 0.70
     Davidson diagonalization with overlap
     ethr =  3.13E-07,  avg # of iterations =  8.0

     total cpu time spent up to now is      669.0 secs

     total energy              =    -520.62031453 Ry
     estimated scf accuracy    <       0.00002511 Ry

     iteration # 12     ecut=    60.00 Ry     beta= 0.70
     Davidson diagonalization with overlap
     c_bands:  4 eigenvalues not converged
     ethr =  5.84E-08,  avg # of iterations = 11.2

     total cpu time spent up to now is      672.9 secs

     total energy              =    -520.62033473 Ry
     estimated scf accuracy    <       0.00002388 Ry

     iteration # 13     ecut=    60.00 Ry     beta= 0.70
     Davidson diagonalization with overlap
     ethr =  5.55E-08,  avg # of iterations =  2.5

     total cpu time spent up to now is      675.2 secs

     total energy              =    -520.62033960 Ry
     estimated scf accuracy    <       0.00000049 Ry

     iteration # 14     ecut=    60.00 Ry     beta= 0.70
     Davidson diagonalization with overlap
     c_bands:  5 eigenvalues not converged
     c_bands:  1 eigenvalues not converged
     c_bands:  3 eigenvalues not converged
     c_bands:  4 eigenvalues not converged
     c_bands:  3 eigenvalues not converged
     c_bands:  4 eigenvalues not converged
     c_bands:  3 eigenvalues not converged
     ethr =  1.13E-09,  avg # of iterations = 25.3

     total cpu time spent up to now is      684.5 secs

     total energy              =    -520.62034563 Ry
     estimated scf accuracy    <       0.00000242 Ry

     iteration # 15     ecut=    60.00 Ry     beta= 0.70
     Davidson diagonalization with overlap
     ethr =  1.13E-09,  avg # of iterations =  3.6

     total cpu time spent up to now is      686.8 secs

     total energy              =    -520.62034548 Ry
     estimated scf accuracy    <       0.00000157 Ry

     iteration # 16     ecut=    60.00 Ry     beta= 0.70
     Davidson diagonalization with overlap
     ethr =  1.13E-09,  avg # of iterations =  2.0

     total cpu time spent up to now is      689.2 secs

     total energy              =    -520.62034523 Ry
     estimated scf accuracy    <       0.00000077 Ry

     iteration # 17     ecut=    60.00 Ry     beta= 0.70
     Davidson diagonalization with overlap
     ethr =  1.13E-09,  avg # of iterations =  5.7

     total cpu time spent up to now is      692.3 secs

     total energy              =    -520.62034566 Ry
     estimated scf accuracy    <       0.00000016 Ry

     iteration # 18     ecut=    60.00 Ry     beta= 0.70
     Davidson diagonalization with overlap
     ethr =  3.71E-10,  avg # of iterations =  2.8

     total cpu time spent up to now is      694.7 secs

     total energy              =    -520.62034556 Ry
     estimated scf accuracy    <       0.00000017 Ry

     iteration # 19     ecut=    60.00 Ry     beta= 0.70
     Davidson diagonalization with overlap
     ethr =  3.71E-10,  avg # of iterations =  3.2

     total cpu time spent up to now is      697.2 secs

     total energy              =    -520.62034557 Ry
     estimated scf accuracy    <       0.00000004 Ry

     iteration # 20     ecut=    60.00 Ry     beta= 0.70
     Davidson diagonalization with overlap
     c_bands:  1 eigenvalues not converged
     ethr =  9.34E-11,  avg # of iterations = 12.7

     total cpu time spent up to now is      702.2 secs

     total energy              =    -520.62034594 Ry
     estimated scf accuracy    <       0.00000029 Ry

     iteration # 21     ecut=    60.00 Ry     beta= 0.70
     Davidson diagonalization with overlap
     ethr =  9.34E-11,  avg # of iterations =  2.2

     total cpu time spent up to now is      704.6 secs

     total energy              =    -520.62034593 Ry
     estimated scf accuracy    <       0.00000017 Ry

     iteration # 22     ecut=    60.00 Ry     beta= 0.70
     Davidson diagonalization with overlap
     ethr =  9.34E-11,  avg # of iterations =  6.5

     total cpu time spent up to now is      708.4 secs

     End of self-consistent calculation

     =================== HUBBARD OCCUPATIONS ===================
     ------------------------ ATOM    3 ------------------------
     Tr[ns(  3)] =   5.23642
     eigenvalues:
       0.219  0.312  0.399  0.713  0.976
     eigenvectors (columns):
       0.536 -0.002 -0.207  0.001 -0.818
      -0.001  0.965  0.002  0.264 -0.003
      -0.805 -0.001 -0.418 -0.000 -0.422
       0.255  0.004 -0.884 -0.002  0.391
      -0.000  0.264  0.002 -0.965 -0.002
     occupation matrix ns (before diag.):
       0.733  0.002  0.276 -0.209  0.001
       0.002  0.340  0.001 -0.001 -0.102
       0.276  0.001  0.385 -0.058  0.001
      -0.209 -0.001 -0.058  0.475  0.000
       0.001 -0.102  0.001  0.000  0.685

     Number of occupied Hubbard levels =    5.2364

          k = 0.0000 0.0000 0.0000 (  3799 PWs)   bands (ev):

   -72.8876 -42.3142 -41.5356 -40.9254 -11.8813 -10.5535 -10.2833 -10.0534
     0.8164   1.4992   2.2379   2.7003   3.0722   3.9191   4.1017   4.3648
     4.6223   5.4173   5.6253   5.6773   6.0618   7.1397   8.0004  10.0764
    10.3415  11.7294

          k =-0.0003 0.0004 0.1874 (  3830 PWs)   bands (ev):

   -72.8875 -42.3142 -41.5357 -40.9254 -11.6850 -10.7089 -10.3529 -10.0917
     1.0128   1.7994   1.9824   3.0740   3.0813   3.8806   4.0228   4.4762
     4.5972   4.9608   5.5725   5.6018   5.7632   7.0971   8.1025   9.7865
    10.3831  12.8457

          k = 0.0005-0.0008-0.3749 (  3818 PWs)   bands (ev):

   -72.8874 -42.3143 -41.5357 -40.9254 -11.3549 -10.9837 -10.4238 -10.1447
     1.2713   1.8261   2.5171   3.0172   3.0702   3.4846   3.8742   4.5464
     4.5668   4.8339   5.4810   5.5220   5.6313   7.0537   8.1854   9.5450
    10.4259  14.4580

          k = 0.0003 0.1193-0.0964 (  3818 PWs)   bands (ev):

   -72.8876 -42.3142 -41.5357 -40.9254 -11.7762 -10.5799 -10.4203 -10.0365
     1.0395   1.5173   2.1949   2.7965   3.1073   3.9399   4.1143   4.3119
     4.6886   5.0201   5.4877   5.6293   6.0654   7.1640   7.9933  10.1404
    10.3813  12.5190

          k = 0.0000 0.1197 0.0910 (  3810 PWs)   bands (ev):

   -72.8876 -42.3142 -41.5356 -40.9254 -11.7294 -10.7903 -10.2460 -10.0466
     0.9498   1.7972   2.1071   2.8941   3.0397   3.8070   3.9192   4.4814
     4.6148   5.2213   5.5827   5.5836   5.8397   7.1343   8.0983   9.7920
    10.3423  12.4941

          k = 0.0009 0.1185-0.4713 (  3826 PWs)   bands (ev):

   -72.8875 -42.3143 -41.5357 -40.9254 -11.4052 -11.0629 -10.3241 -10.0877
     1.3077   1.6533   2.4294   3.0385   3.1558   3.5102   3.9015   4.3341
     4.5850   5.0790   5.4396   5.4990   5.6768   7.0904   8.2016   9.5549
    10.3848  13.8579

          k = 0.0006 0.1189-0.2839 (  3817 PWs)   bands (ev):

   -72.8875 -42.3142 -41.5357 -40.9254 -11.5322 -10.7885 -10.4830 -10.0767
     1.2362   1.7912   2.2208   2.9708   3.1070   3.8319   3.8982   4.4312
     4.5029   4.8994   5.4484   5.5492   5.7700   7.1242   8.1226   9.8643
    10.4230  14.0900

          k =-0.0006-0.2386 0.1928 (  3820 PWs)   bands (ev):

   -72.8875 -42.3142 -41.5357 -40.9254 -11.6422 -10.6774 -10.5108 -10.0229
     1.0193   1.8607   2.4009   2.8223   3.1449   3.6043   3.9643   4.2541
     4.5784   4.9928   5.4779   5.5806   6.0666   7.1883   7.9848  10.2088
    10.4209  13.8328

          k =-0.0009-0.2382 0.3803 (  3812 PWs)   bands (ev):

   -72.8875 -42.3142 -41.5357 -40.9254 -11.5905 -10.8604 -10.3697 -10.0342
     1.3363   1.7510   2.0049   2.9080   3.0705   3.8066   3.9408   4.4349
     4.7351   4.8815   5.4335   5.5314   5.8060   7.1597   8.1283   9.8747
    10.3824  13.4185

          k =-0.0001-0.2394-0.1821 (  3828 PWs)   bands (ev):

   -72.8876 -42.3143 -41.5356 -40.9254 -11.4477 -11.1320 -10.2292 -10.0438
     1.1542   1.8266   2.3134   3.0085   3.0343   3.7119   3.9304   4.0977
     4.5959   5.1807   5.4822   5.5563   5.7302   7.1251   8.1673   9.5441
    10.3436  13.7625

          k = 0.2497-0.0606-0.1388 (  3817 PWs)   bands (ev):

   -72.8847 -42.3112 -41.5301 -40.9645 -11.3236 -10.5815 -10.2130 -10.0355
     1.4034   1.6767   2.1275   2.4341   2.7789   3.0158   3.8385   4.0106
     4.2830   5.0111   5.3002   5.5157   6.1180   6.9815   8.0231   9.6920
    10.1046  13.9373

          k = 0.2495-0.0602 0.0486 (  3820 PWs)   bands (ev):

   -72.8847 -42.3111 -41.5301 -40.9645 -11.4222 -10.4544 -10.2589 -10.0022
     1.4213   1.8157   2.0456   2.4455   2.8257   2.8673   3.7118   3.9921
     4.2908   5.0279   5.3848   5.5661   6.0442   7.0710   7.9510   9.7583
    10.0803  13.5865

          k = 0.2503-0.0614-0.5137 (  3826 PWs)   bands (ev):

   -72.8847 -42.3112 -41.5301 -40.9645 -11.2276 -10.5512 -10.3447 -10.0549
     1.3233   1.6846   2.2018   2.5549   2.6739   3.0095   4.0018   4.1236
     4.3904   4.9240   5.0537   5.4827   6.1602   6.9709   8.0195   9.6476
    10.0351  14.7087

          k = 0.2500-0.0610-0.3262 (  3842 PWs)   bands (ev):

   -72.8847 -42.3112 -41.5301 -40.9645 -11.0425 -10.7637 -10.2955 -10.0937
     1.3353   1.6525   2.0957   2.4473   2.7323   3.3590   3.9209   4.2041
     4.3875   4.8559   4.9986   5.4685   6.1820   6.8945   8.0870   9.8107
     9.8603  15.0983

          k = 0.2500 0.0588-0.2352 (  3828 PWs)   bands (ev):

   -72.8847 -42.3112 -41.5301 -40.9645 -11.2279 -10.5512 -10.3442 -10.0550
     1.3235   1.6849   2.2022   2.5531   2.6743   3.0095   4.0004   4.1234
     4.3911   4.9254   5.0530   5.4829   6.1604   6.9719   8.0189   9.6483
    10.0344  14.7071

          k = 0.2498 0.0592-0.0478 (  3821 PWs)   bands (ev):

   -72.8847 -42.3111 -41.5301 -40.9645 -11.4225 -10.4543 -10.2586 -10.0022
     1.4213   1.8155   2.0456   2.4453   2.8238   2.8693   3.7116   3.9915
     4.2915   5.0265   5.3866   5.5665   6.0436   7.0713   7.9509   9.7583
    10.0803  13.5858

          k = 0.2506 0.0580-0.6101 (  3820 PWs)   bands (ev):

   -72.8847 -42.3112 -41.5301 -40.9645 -11.3237 -10.5811 -10.2134 -10.0356
     1.4026   1.6771   2.1272   2.4334   2.7811   3.0146   3.8389   4.0114
     4.2832   5.0102   5.2992   5.5165   6.1185   6.9813   8.0233   9.6910
    10.1049  13.9386

          k = 0.2503 0.0584-0.4227 (  3840 PWs)   bands (ev):

   -72.8847 -42.3112 -41.5301 -40.9645 -11.0425 -10.7633 -10.2957 -10.0939
     1.3353   1.6523   2.0955   2.4474   2.7321   3.3597   3.9223   4.2035
     4.3863   4.8555   4.9988   5.4691   6.1823   6.8948   8.0867   9.8109
     9.8595  15.0989

          k = 0.2491-0.2992 0.0540 (  3834 PWs)   bands (ev):

   -72.8847 -42.3112 -41.5301 -40.9645 -11.1572 -10.6496 -10.3427 -10.0400
     1.4707   1.8452   2.1099   2.4668   2.6739   3.1210   3.7072   4.0389
     4.3803   4.8966   5.1120   5.5371   6.1530   6.9823   8.0335   9.6633
    10.1178  14.7119

          k = 0.2488-0.2988 0.2415 (  3827 PWs)   bands (ev):

   -72.8847 -42.3111 -41.5301 -40.9645 -11.2891 -10.4730 -10.4050 -10.0052
     1.3851   1.9735   2.2629   2.5101   2.6651   2.8911   3.5503   3.9508
     4.4810   4.9106   5.1590   5.5950   6.1129   7.0868   7.9384   9.7069
    10.0834  14.4964

          k = 0.2496-0.3000-0.3209 (  3832 PWs)   bands (ev):

   -72.8847 -42.3112 -41.5301 -40.9645 -11.2719 -10.6439 -10.2250 -10.0240
     1.6104   1.7847   1.9358   2.5649   2.7888   3.0493   3.5699   3.8886
     4.1540   5.0717   5.3513   5.5756   6.1074   6.9857   8.0340   9.7197
    10.1883  13.8650

          k = 0.2494-0.2996-0.1334 (  3817 PWs)   bands (ev):

   -72.8847 -42.3112 -41.5301 -40.9645 -11.0638 -10.8669 -10.1959 -10.0542
     1.5704   1.7184   1.9739   2.5676   2.7540   3.1040   3.5131   4.1715
     4.2928   4.8417   5.3181   5.5450   6.1547   6.8949   8.0992   9.9089
     9.9448  14.6160

          k = 0.2494-0.1799-0.0424 (  3832 PWs)   bands (ev):

   -72.8847 -42.3112 -41.5301 -40.9645 -11.2713 -10.6443 -10.2252 -10.0240
     1.6109   1.7850   1.9357   2.5668   2.7881   3.0473   3.5700   3.8886
     4.1550   5.0721   5.3494   5.5761   6.1078   6.9859   8.0335   9.7204
    10.1876  13.8650

          k = 0.2491-0.1795 0.1451 (  3832 PWs)   bands (ev):

   -72.8847 -42.3111 -41.5301 -40.9645 -11.2887 -10.4733 -10.4052 -10.0052
     1.3849   1.9733   2.2633   2.5119   2.6645   2.8907   3.5495   3.9511
     4.4808   4.9100   5.1598   5.5947   6.1130   7.0864   7.9385   9.7066
    10.0835  14.4979

          k = 0.2500-0.1807-0.4173 (  3833 PWs)   bands (ev):

   -72.8847 -42.3112 -41.5301 -40.9645 -11.1574 -10.6497 -10.3425 -10.0398
     1.4700   1.8456   2.1097   2.4677   2.6731   3.1220   3.7056   4.0402
     4.3798   4.8973   5.1122   5.5366   6.1523   6.9815   8.0342   9.6629
    10.1189  14.7111

          k = 0.2497-0.1803-0.2298 (  3819 PWs)   bands (ev):

   -72.8847 -42.3112 -41.5301 -40.9645 -11.0637 -10.8672 -10.1957 -10.0541
     1.5707   1.7179   1.9743   2.5680   2.7538   3.1038   3.5118   4.1725
     4.2925   4.8413   5.3195   5.5441   6.1542   6.8946   8.0995   9.9086
     9.9457  14.6158

          k =-0.4995 0.1211 0.2776 (  3852 PWs)   bands (ev):

   -72.8823 -42.3081 -41.5245 -41.0032 -10.6350 -10.4401 -10.2802 -10.0956
     0.7125   1.2098   1.8415   2.2744   2.5895   3.4978   3.8965   4.2670
     4.5379   4.7667   4.8119   5.3325   5.9789   6.7979   7.9309   9.9981
    10.1070  15.3011

          k =-0.4997 0.1215 0.4650 (  3835 PWs)   bands (ev):

   -72.8823 -42.3081 -41.5245 -41.0032 -10.6800 -10.4568 -10.2657 -10.0546
     0.9157   1.2288   1.9722   2.3779   2.5987   3.4239   3.6781   4.2284
     4.4042   4.5191   4.9182   5.1683   5.9756   6.9657   7.9156   9.8117
    10.0674  15.8385

          k =-0.4989 0.1203-0.0973 (  3828 PWs)   bands (ev):

   -72.8823 -42.3081 -41.5245 -41.0032 -10.7175 -10.4767 -10.2494 -10.0197
     1.0785   1.3422   2.2129   2.4494   2.6527   3.1068   3.3953   4.1576
     4.3501   4.4905   4.9030   5.0397   5.9665   7.0944   7.9038   9.5970
    10.0824  16.0888

          k =-0.4991 0.2404 0.1812 (  3845 PWs)   bands (ev):

   -72.8823 -42.3081 -41.5245 -41.0032 -10.6349 -10.4407 -10.2795 -10.0960
     0.7784   1.1112   1.8488   2.2732   2.5769   3.6507   3.8616   4.2000
     4.5321   4.7537   4.8230   5.3276   5.9776   6.8011   7.9253  10.0125
    10.0826  15.6066

          k =-0.4994 0.2408 0.3686 (  3834 PWs)   bands (ev):

   -72.8823 -42.3081 -41.5245 -41.0032 -10.6796 -10.4594 -10.2632 -10.0550
     0.9005   1.2656   1.9656   2.2356   2.8004   3.3429   3.6748   4.2130
     4.4086   4.5199   4.9300   5.1768   5.9739   6.9708   7.9150   9.8003
    10.0808  15.6323

          k =-0.4986 0.2396-0.1937 (  3823 PWs)   bands (ev):

   -72.8823 -42.3081 -41.5245 -41.0032 -10.7197 -10.4709 -10.2547 -10.0178
     1.0930   1.3109   2.1808   2.5364   2.6927   3.0041   3.4662   4.1329
     4.2858   4.4841   4.8825   5.1019   5.9708   7.0992   7.9040   9.6067
    10.0743  16.0447

          k =-0.4989 0.2400-0.0063 (  3835 PWs)   bands (ev):

   -72.8823 -42.3081 -41.5245 -41.0032 -10.6793 -10.4592 -10.2634 -10.0553
     0.9007   1.2653   1.9644   2.2355   2.8006   3.3433   3.6752   4.2138
     4.4100   4.5200   4.9298   5.1761   5.9741   6.9705   7.9148   9.8003
    10.0809  15.6290

          k =-0.5001-0.1175 0.4704 (  3856 PWs)   bands (ev):

   -72.8823 -42.3081 -41.5245 -41.0032 -10.6352 -10.4398 -10.2804 -10.0956
     0.7135   1.2089   1.8406   2.2732   2.5873   3.4988   3.8989   4.2683
     4.5394   4.7661   4.8119   5.3322   5.9791   6.7981   7.9301   9.9966
    10.1077  15.2978

          k =-0.5003-0.1171 0.6579 (  3833 PWs)   bands (ev):

   -72.8823 -42.3081 -41.5245 -41.0032 -10.6804 -10.4568 -10.2656 -10.0543
     0.9168   1.2283   1.9718   2.3770   2.5967   3.4244   3.6790   4.2286
     4.4039   4.5205   4.9182   5.1687   5.9756   6.9664   7.9151   9.8109
    10.0675  15.8402

          k =-0.4995-0.1183 0.0955 (  3822 PWs)   bands (ev):

   -72.8823 -42.3081 -41.5245 -41.0032 -10.7181 -10.4769 -10.2490 -10.0192
     1.0800   1.3420   2.2126   2.4487   2.6510   3.1073   3.3955   4.1568
     4.3498   4.4907   4.9043   5.0401   5.9663   7.0954   7.9037   9.5959
    10.0826  16.0929

     the Fermi energy is     7.0469 ev

!    total energy              =    -520.62034599 Ry
     total all-electron energy =     -3720.873604 Ry
     estimated scf accuracy    <          3.4E-09 Ry
     smearing contrib. (-TS)   =      -0.00493055 Ry
     internal energy E=F+TS    =    -520.61541544 Ry

     The total energy is F=E-TS. E is the sum of the following terms:
     one-electron contribution =    -240.57724263 Ry
     hartree contribution      =     145.36348572 Ry
     xc contribution           =     -61.24999618 Ry
     ewald contribution        =    -185.65530010 Ry
     Hubbard energy            =       0.24480587 Ry
     one-center paw contrib.   =    -178.74116813 Ry

     convergence has been achieved in  22 iterations
     force_hub    :    197.34s CPU     28.26s WALL (      13 calls)
     dndtau       :    173.61s CPU     24.97s WALL (    9828 calls)
     dprojdtau    :     26.83s CPU      3.91s WALL (    9828 calls)
     calc_doverla :     93.25s CPU     13.69s WALL (    9828 calls)
     matel_dSdtau :    126.77s CPU     17.94s WALL (   19656 calls)

     Forces acting on atoms (cartesian axes, Ry/au):

     atom    1 type  1   force =     0.00015734   -0.00035227    0.00011451
     atom    2 type  1   force =     0.00001751    0.00013825    0.00010755
     atom    3 type  3   force =    -0.00002880    0.00061054   -0.00052171
     atom    4 type  2   force =    -0.00018664    0.00019606    0.00026125
     atom    5 type  2   force =     0.00012830    0.00007533    0.00076602
     atom    6 type  2   force =    -0.00004966   -0.00055528   -0.00077552
     atom    7 type  2   force =    -0.00003804   -0.00011263    0.00004791

     Total force =     0.001587     Total SCF correction =     0.000112


     Computing stress (Cartesian axis) and pressure

     stres_hub    :    534.72s CPU     73.34s WALL (      13 calls)
     dprojdepsilo :    441.59s CPU     60.27s WALL (    4212 calls)
     dprojdeps1   :     45.16s CPU      6.42s WALL (    4212 calls)
     dprojdeps2   :    248.48s CPU     33.94s WALL (    4212 calls)
     dprojdeps3   :    147.92s CPU     19.88s WALL (    4212 calls)
          total   stress  (Ry/bohr**3)                   (kbar)     P=       -0.13
  -0.00000188  -0.00000114   0.00000057           -0.28       -0.17        0.08
  -0.00000114   0.00000205  -0.00000135           -0.17        0.30       -0.20
   0.00000057  -0.00000135  -0.00000285            0.08       -0.20       -0.42


     Writing all to output data dir .\out\\qgan.save\ :
     XML data file, charge density, pseudopotentials, collected wavefunctions
 
     init_run     :     21.97s CPU      3.59s WALL (       2 calls)
     electrons    :   4656.20s CPU    575.48s WALL (      13 calls)
     update_pot   :     12.00s CPU      1.87s WALL (      11 calls)
     forces       :    228.81s CPU     33.30s WALL (      13 calls)
     stress       :    704.56s CPU     97.11s WALL (      13 calls)

     Called by init_run:
     wfcinit      :     15.52s CPU      2.02s WALL (       2 calls)
     potinit      :      2.39s CPU      0.38s WALL (       2 calls)
     hinit0       :      1.73s CPU      0.76s WALL (       2 calls)

     Called by electrons:
     c_bands      :   3467.38s CPU    417.80s WALL (     181 calls)
     sum_band     :    748.12s CPU     95.58s WALL (     181 calls)
     v_of_rho     :     30.00s CPU      4.25s WALL (     189 calls)
     newd         :    243.30s CPU     35.16s WALL (     189 calls)
     PAW_pot      :    194.05s CPU     27.18s WALL (     200 calls)
     mix_rho      :      5.36s CPU      0.84s WALL (     181 calls)

     Called by c_bands:
     init_us_2    :    263.33s CPU     33.55s WALL (   15840 calls)
     cegterg      :   3023.08s CPU    362.83s WALL (    6590 calls)

     Called by *egterg:
     cdiaghg      :    126.94s CPU     15.19s WALL (   38035 calls)
     h_psi        :   2295.77s CPU    275.55s WALL (   38719 calls)
     s_psi        :     78.45s CPU     10.18s WALL (   41059 calls)
     g_psi        :     15.31s CPU      2.09s WALL (   32057 calls)

     Called by h_psi:
     h_psi:calbec :     80.84s CPU      8.99s WALL (   38719 calls)
     vloc_psi     :   2056.28s CPU    247.39s WALL (   38719 calls)
                                        0.00s GPU  (   38719 calls)
     add_vuspsi   :     74.67s CPU      9.75s WALL (   38719 calls)
     vhpsi        :     47.80s CPU      5.29s WALL (   38719 calls)

     General routines
     calbec       :    555.44s CPU     73.90s WALL (  420806 calls)
     fft          :     10.25s CPU      1.43s WALL (    2772 calls)
     ffts         :      0.44s CPU      0.09s WALL (     370 calls)
     fftw         :   1608.42s CPU    207.23s WALL ( 1358360 calls)
     interpolate  :      2.52s CPU      0.38s WALL (     189 calls)
 
     Parallel routines

     Hubbard U routines
     new_ns       :     12.80s CPU      1.58s WALL (     181 calls)
     vhpsi        :     47.80s CPU      5.29s WALL (   38719 calls)
     force_hub    :    197.34s CPU     28.26s WALL (      13 calls)
     stres_hub    :    534.72s CPU     73.34s WALL (      13 calls)
 
     PWSCF        :      1h34m CPU  11m58.49s WALL

 
   This run was terminated on:  13:10:20  18Apr2026            

=------------------------------------------------------------------------------=
   JOB DONE.
=------------------------------------------------------------------------------=
