Mg1 Mn3 O4
1.0
   5.8143038391885682    0.9735997929873936    4.3220959537536778
   1.1707155430192528    6.2416503243721326    0.2723274262193398
   0.8322773390981643   -0.6392485599295803    6.6120770053031181
Mg Mn O
1 3 4
direct
   0.0705762270803012    0.2188302088180046    0.0750037073343314 Mg
   0.8600719429288435    0.7021778871230518    0.3699583090410382 Mn
   0.5688491499474609    0.2190183736185143    0.5730693825789780 Mn
   0.2774658711717471    0.7374742630135680    0.7768526549789949 Mn
   0.4473405894064538    0.9788510709504273    0.7135509585168837 O
   0.2173476948666078    0.4536252499334951    0.9350243855802829 O
   0.9201967420977433   -0.0143338065165671    0.2111964443586472 O
   0.6908175449122527    0.4601505813078297    0.4330112909495564 O
