Mg2 Mn1 O3
1.0
   4.7213620304525872    0.6415276113799955    1.7923925415788058
   0.5918673873344763    3.6996025086392539    4.2201644797447679
   0.4412157957333909    0.7145667091480398    5.6352924834453146
Mg Mn O
2 1 3
direct
   0.4484546240933255    0.3688375882339306    0.6296797082482259 Mg
  -0.1646080777568784   -0.0081734203875077    0.2327125873217674 Mg
   0.1455463768331706    0.1654925977880616    0.4473794173367903 Mn
   0.2359235431372841    0.9770827087655906    0.2337561990034453 O
   0.8351284354793775    0.3731270412953838    0.6400106682642343 O
   0.5365310051508594    0.1848018074267256    0.4257219052840752 O
