Mg1 Mn1 O2
1.0
   3.7601786361800169    0.3822841440168988    1.2986352303650512
  -0.1268629127959198    3.7546487882360027    3.6229745949850813
  -0.2930045647709386    0.0151722970578574    5.1956478687900027
Mg Mn O
1 1 2
direct
   0.4413358795528742    0.3990108363936296    0.8592719022290193 Mg
  -0.0173051453789692    0.8379318598616866    0.3016761129509388 Mn
   0.4292193656803388    0.9148518567891754    0.3756942015561630 O
   0.9806106634613087    0.3385468267895724    0.8029582333593028 O
