Mg1 Mn1 O3
1.0
   3.5359891935611811    0.4839099851391548    1.3070618585837404
  -0.2558769997274827    3.9546307053555192    4.1123578340867804
  -0.1598741721295714    0.8505245088880710    5.0513786942940913
Mg Mn O
1 1 3
direct
   0.4023884945685350    0.4232768568636011    0.9660698622363204 Mg
   0.0790091451709651    0.8642791359902942    0.1433070909403381 Mn
   0.5431578102554027    0.8456677500727147    0.2324857427782371 O
   0.9701231850499921    0.3930425365880625    0.8463516792910666 O
   0.2503982847541799   -0.0236872629991149    0.6802068340316032 O
