Mg1 Mn1 O2
1.0
   3.7528722613354750    0.3758903613231994    1.2924844865880190
  -0.1149488901866941    3.7697808673922419    3.6017930368663507
  -0.2896729794350812    0.0235365826937317    5.1870464065160471
Mg Mn O
1 1 2
direct
   0.4384103103679706    0.3925354740064326    0.8565996455975732 Mg
  -0.0204603478425196    0.8318316398002148    0.2990062397381667 Mn
   0.4245756110808411    0.9092335175787852    0.3729223040456966 O
   0.9768925118967346    0.3319362504000665    0.7991925848166216 O
