Mg2 Mn1 O3
1.0
   5.6691808249007396    1.2285848397188983    1.4067102513422975
   0.8202838201626265    3.8478812050379414    4.0525879462321264
  -0.1998494531653914   -0.1030739182282467    6.1676141316749638
Mg Mn O
2 1 3
direct
   0.4873978846045847    0.4472693829907421    0.5454144626152431 Mg
   0.0828122729118178    0.1630599543105002   -0.0768723463453019 Mg
   0.1055044677242238    0.1510507268724050    0.4850853252887926 Mn
   0.2074635000461322    0.9400462777563597    0.3144027271417285 O
   0.8267946847153379    0.2859137017810495    0.6754829247946936 O
   0.3500123186060873    0.1174236577922196    0.6953516453017007 O
