Mg2 Mn1 O3
1.0
   5.7054287119111500    1.2775335089356510    1.4781973925898952
   0.9093174816236815    3.8983390180466762    4.1451965064063154
  -0.0813777872617595    0.0352814428988719    6.1449449732129393
Mg Mn O
2 1 3
direct
   0.4917044803119983    0.4399601592822673    0.5445298401777109 Mg
   0.0740595937869473    0.1777348400839948   -0.0826300223232978 Mg
   0.1124525216350303    0.1493470688601321    0.4848085849169209 Mn
   0.2056959831087095    0.9333736511515839    0.3213121061627590 O
   0.8262072088240454    0.2831327016633610    0.6774436749767702 O
   0.3492862315043367    0.1201089970373729    0.6926645712557454 O
