Mg2 Mn1 O4
1.0
   3.8790780946229577    0.4504611907633678    1.4601649688700571
   0.3283247155412277    3.9562955366378225    3.8459922208446455
   0.1207815344032001    0.5370045583608416    5.4471886720117704
Mg Mn O
2 1 4
direct
   0.4143639274475388    0.4446929972068078    0.5171207274311229 Mg
  -0.1600646807084631    0.0128552058493922    0.0987437670984393 Mg
   0.1429848555158213    0.2230656634513367    0.2980378010781934 Mn
   0.1553784354534182    0.6947156593206333    0.7739615574210399 O
   0.9268726626598159    0.4283023473196995    0.5073352297689026 O
   0.6160058222780429    0.2226883201909178    0.3099899678695008 O
   0.3432525424643522    0.0129913350949276    0.0896704045950127 O
