Mg1 Mn1 O3
1.0
   3.5098804263512711    0.5234755488385336    1.3713664291348586
  -0.2052274421359067    4.0952893498097991    4.2247920331869011
  -0.1120807843034515    1.0146249664889162    5.1335069446252222
Mg Mn O
1 1 3
direct
   0.3899946072159393    0.4114708827321703    0.9684742772603839 Mg
   0.0780499103981933    0.8677611874360774    0.1309576821411326 Mn
   0.5483689922405292    0.8491183200852942    0.2165337593458682 O
   0.9634740310862491    0.3847048909541610    0.8488111971951813 O
   0.2508980749059265   -0.0428349862970483    0.6871638000604819 O
