Mg1 Mn2 O3
1.0
   2.9045747335984906    0.0762935861739325    0.3275999595848885
  -1.6810554122140779    3.9663944246557623   -0.2576673679990177
   0.7326482456728348   -0.7790654043045103    8.4303324491221758
Mg Mn O
1 2 3
direct
   0.7586825055030350    0.4947344862693002    0.6824230122590486 Mg
   0.7890894222629760    0.2097864357971198    0.3463438398006362 Mn
  -0.2059327116852215   -0.1090914797884175    0.0002746150092322 Mn
   0.2743572197280941    0.6844923714871920    0.8344213469913387 O
   0.3106140248970330    0.0775430941420412    0.1688100747727418 O
   0.2478511397241577    0.3221513052795827    0.5288732790872733 O
