Mg2 Mn1 O4
1.0
   3.3562431465197746    0.2911405215732419    1.3016481604360803
   0.3601040359392844    4.5305818913536218    3.0493952642415989
  -0.1039278055426005   -0.5467258171399505    5.4401312300942513
Mg Mn O
2 1 4
direct
   0.3707473597592663    0.5534584690418614    0.5088800622453435 Mg
  -0.1004694368385018    0.0244890229322675   -0.0203649979019793 Mg
   0.1343017513513486    0.1432441294665348    0.3902968928332626 Mn
   0.1382818736525586    0.8247350528100788    0.7094619536835260 O
   0.9134131685231830    0.3690418630773423    0.6069210230152969 O
   0.6335672899045010    0.2565497927880044    0.2774934265256673 O
   0.3550767045611936   -0.0722565643705336    0.1637966923082934 O
