Mg1 Mn6 O8
1.0
   6.6074116798646640   -0.1964427095884888   -1.1506862613724971
  -0.9576117080166191    6.9344944054359710   -2.4594747455634880
  -0.0476598728694270    0.2537036623933516    7.5474255780621888
Mg Mn O
1 6 8
direct
   0.2129141693965233    0.3048414684005447   -0.0100184388652691 Mg
   0.5217173826882914   -0.1644187363911259    0.2458916277549993 Mn
   0.7163221149599207    0.7216960393735609    0.5987990613620139 Mn
   0.4700803675368465    0.0889152424678366    0.7193459251690540 Mn
  -0.0367240497297377    0.5299718448992953    0.2607276865095354 Mn
   0.2124789071792442    0.5760918284000633    0.7735687060743895 Mn
   0.2226304063083190    0.1947572270199416    0.4148155714173152 Mn
   0.3061273072986138    0.5879157023587527    0.0584463510898032 O
   0.2062346378820868    0.7036367293667706    0.2019207254911425 O
   0.1016119652428251    0.2916505704498975    0.1991450999892332 O
   0.4829073965042157    0.0690142412644739    0.4504055058409956 O
   0.3598723297407446    0.8367138559541379    0.7627942504708848 O
   0.2386239987683427    0.2727285691999118    0.7283261956868423 O
   0.4286742139168216    0.6698666848211455    0.6389262300531428 O
   0.7611403214043670    0.7032791203911594    0.3415310221122930 O
