
     Program PWSCF v.7.5 starts on 18Apr2026 at 13:10:20 
        Git branch: HEAD
        Last git commit: 770a0b2d12928a67048e2f3da8d10d057e52179e-dirty
        Last git commit date: Tue Aug 19 09:57:12 2025 +0000
        Last git commit subject: Merge branch 'QE-7.5-RC' into 'master'

     This program is part of the open-source Quantum ESPRESSO suite
     for quantum simulation of materials; please cite
         "P. Giannozzi et al., J. Phys.:Condens. Matter 21 395502 (2009);
         "P. Giannozzi et al., J. Phys.:Condens. Matter 29 465901 (2017);
         "P. Giannozzi et al., J. Chem. Phys. 152 154105 (2020);
          URL http://www.quantum-espresso.org", 
     in publications or presentations arising from this work. More details at
     http://www.quantum-espresso.org/quote

     Parallel version (MPI & OpenMP), running on      16 processor cores
     Number of MPI processes:                 1
     Threads/MPI process:                    16

     MPI processes distributed on     1 nodes
     0 MiB available memory on the printing compute node when the environment starts
 
     Reading input from pw_relax.in

     Current dimensions of program PWSCF are:
     Max number of different atomic species (ntypx) = 10
     Max number of k-points (npk) =  40000
     Max angular momentum in pseudopotentials (lmaxx) =  4
     file Mg.pbe-n-kjpaw_psl.0.3.0.UPF: wavefunction(s)  3S renormalized
     file O.pbe-n-kjpaw_psl.1.0.0.UPF: wavefunction(s)  2S 2P renormalized
     file Mn.pbe-spn-kjpaw_psl.0.3.1.UPF: wavefunction(s)  3P 3D renormalized
 
     Subspace diagonalization in iterative solution of the eigenvalue problem:
     a serial algorithm will be used

 
     G-vector sticks info
     --------------------
     sticks:   dense  smooth     PW     G-vecs:    dense   smooth      PW
     Sum        2523    1255    391                88575    31303    5521
 
     Using Slab Decomposition
 


     bravais-lattice index     =            0
     lattice parameter (alat)  =       5.5900  a.u.
     unit-cell volume          =     498.4678 (a.u.)^3
     number of atoms/cell      =            7
     number of atomic types    =            3
     number of electrons       =        43.00
     number of Kohn-Sham states=           26
     kinetic-energy cutoff     =      60.0000  Ry
     charge density cutoff     =     480.0000  Ry
     scf convergence threshold =      1.0E-06
     mixing beta               =       0.7000
     number of iterations used =            8  plain     mixing
     energy convergence thresh.=      1.0E-04
     force convergence thresh. =      1.0E-03
     press convergence thresh. =      5.0E-01
     Exchange-correlation= SLA  PW   PBX  PBC
                           (   1   4   3   4   0   0   0)
     nstep                     =           50

     Hubbard projectors: ortho-atomic
     Hubbard parameters of DFT+U (Dudarev formulation) in eV:
     U(Mn-3d) =  3.9000

     Internal variables: lda_plus_u = T, lda_plus_u_kind = 0

     Internal variables: orbital_resolved = F, hub_pot_fix = F, apply_U =  F

     celldm(1)=   5.589999  celldm(2)=   0.000000  celldm(3)=   0.000000
     celldm(4)=   0.000000  celldm(5)=   0.000000  celldm(6)=   0.000000

     crystal axes: (cart. coord. in units of alat)
               a(1) = (   1.000000   0.000000   0.000000 )  
               a(2) = (   0.507302   2.110331   0.000000 )  
               a(3) = (   1.000899   1.089041   1.352233 )  

     reciprocal axes: (cart. coord. in units 2 pi/alat)
               b(1) = (  1.000000 -0.240390 -0.546581 )  
               b(2) = (  0.000000  0.473859 -0.381630 )  
               b(3) = (  0.000000  0.000000  0.739518 )  


     PseudoPot. # 1 for Mg read from file:
     ..\..\pseudo\\Mg.pbe-n-kjpaw_psl.0.3.0.UPF
     MD5 check sum: d3e4124f57d03672d8f0e29aa18e2cc4
     Pseudo is Projector augmented-wave + core cor, Zval =  2.0
     Generated using &quot;atomic&quot; code by A. Dal Corso  v.6.3
     Shape of augmentation charge: PSQ
     Using radial grid of 1129 points,  4 beta functions with: 
                l(1) =   0
                l(2) =   0
                l(3) =   1
                l(4) =   1
     Q(r) pseudized with 0 coefficients 


     PseudoPot. # 2 for O  read from file:
     ..\..\pseudo\\O.pbe-n-kjpaw_psl.1.0.0.UPF
     MD5 check sum: e99d9cef9b487d1ca56f5b95ecd0fd7a
     Pseudo is Projector augmented-wave + core cor, Zval =  6.0
     Generated using &quot;atomic&quot; code by A. Dal Corso  v.6.3
     Shape of augmentation charge: PSQ
     Using radial grid of 1095 points,  4 beta functions with: 
                l(1) =   0
                l(2) =   0
                l(3) =   1
                l(4) =   1
     Q(r) pseudized with 0 coefficients 


     PseudoPot. # 3 for Mn read from file:
     ..\..\pseudo\\Mn.pbe-spn-kjpaw_psl.0.3.1.UPF
     MD5 check sum: ba19e6d7ccbc12830efad05ba8577d9c
     Pseudo is Projector augmented-wave + core cor, Zval = 15.0
     Generated using &quot;atomic&quot; code by A. Dal Corso  v.6.2.2
     Shape of augmentation charge: PSQ
     Using radial grid of 1187 points,  6 beta functions with: 
                l(1) =   0
                l(2) =   0
                l(3) =   1
                l(4) =   1
                l(5) =   2
                l(6) =   2
     Q(r) pseudized with 0 coefficients 


     atomic species   valence    mass     pseudopotential
     Mg                2.00    24.30500     Mg( 1.00)
     O                 6.00    15.99900     O ( 1.00)
     Mn               15.00    54.93800     Mn( 1.00)

     No symmetry found



   Cartesian axes

     site n.     atom                  positions (alat units)
         1        Mg     tau(   1) = (   1.1577208   1.6544234   0.5205953  )
         2        Mg     tau(   2) = (   1.1601369   0.3643650   0.1344823  )
         3        Mn     tau(   3) = (   1.6617339   0.8114989   0.8647142  )
         4        O      tau(   4) = (   1.1692830   2.3452277   0.6026554  )
         5        O      tau(   5) = (   1.6595815   1.4738183   0.9895098  )
         6        O      tau(   6) = (   1.1619289   0.9568666   0.4673114  )
         7        O      tau(   7) = (   1.6693594   2.8562662   1.3258183  )

     number of k points=    36  Marzari-Vanderbilt smearing, width (Ry)=  0.0200
                       cart. coord. in units 2pi/alat
        k(    1) = (   0.0000000   0.0000000   0.0000000), wk =   0.0312500
        k(    2) = (   0.0000000   0.0000000   0.1848794), wk =   0.0625000
        k(    3) = (   0.0000000   0.0000000  -0.3697589), wk =   0.0312500
        k(    4) = (   0.0000000   0.1184648  -0.0954074), wk =   0.0625000
        k(    5) = (   0.0000000   0.1184648   0.0894720), wk =   0.0625000
        k(    6) = (   0.0000000   0.1184648  -0.4651663), wk =   0.0625000
        k(    7) = (   0.0000000   0.1184648  -0.2802869), wk =   0.0625000
        k(    8) = (   0.0000000  -0.2369297   0.1908148), wk =   0.0312500
        k(    9) = (   0.0000000  -0.2369297   0.3756943), wk =   0.0625000
        k(   10) = (   0.0000000  -0.2369297  -0.1789441), wk =   0.0312500
        k(   11) = (   0.2500000  -0.0600975  -0.1366453), wk =   0.0625000
        k(   12) = (   0.2500000  -0.0600975   0.0482342), wk =   0.0625000
        k(   13) = (   0.2500000  -0.0600975  -0.5064042), wk =   0.0625000
        k(   14) = (   0.2500000  -0.0600975  -0.3215247), wk =   0.0625000
        k(   15) = (   0.2500000   0.0583673  -0.2320527), wk =   0.0625000
        k(   16) = (   0.2500000   0.0583673  -0.0471733), wk =   0.0625000
        k(   17) = (   0.2500000   0.0583673  -0.6018116), wk =   0.0625000
        k(   18) = (   0.2500000   0.0583673  -0.4169322), wk =   0.0625000
        k(   19) = (   0.2500000  -0.2970271   0.0541695), wk =   0.0625000
        k(   20) = (   0.2500000  -0.2970271   0.2390490), wk =   0.0625000
        k(   21) = (   0.2500000  -0.2970271  -0.3155894), wk =   0.0625000
        k(   22) = (   0.2500000  -0.2970271  -0.1307099), wk =   0.0625000
        k(   23) = (   0.2500000  -0.1785623  -0.0412379), wk =   0.0625000
        k(   24) = (   0.2500000  -0.1785623   0.1436416), wk =   0.0625000
        k(   25) = (   0.2500000  -0.1785623  -0.4109968), wk =   0.0625000
        k(   26) = (   0.2500000  -0.1785623  -0.2261173), wk =   0.0625000
        k(   27) = (  -0.5000000   0.1201950   0.2732906), wk =   0.0312500
        k(   28) = (  -0.5000000   0.1201950   0.4581700), wk =   0.0625000
        k(   29) = (  -0.5000000   0.1201950  -0.0964683), wk =   0.0312500
        k(   30) = (  -0.5000000   0.2386598   0.1778832), wk =   0.0625000
        k(   31) = (  -0.5000000   0.2386598   0.3627626), wk =   0.0625000
        k(   32) = (  -0.5000000   0.2386598  -0.1918757), wk =   0.0625000
        k(   33) = (  -0.5000000   0.2386598  -0.0069963), wk =   0.0625000
        k(   34) = (  -0.5000000  -0.1167347   0.4641054), wk =   0.0312500
        k(   35) = (  -0.5000000  -0.1167347   0.6489849), wk =   0.0625000
        k(   36) = (  -0.5000000  -0.1167347   0.0943465), wk =   0.0312500

     Dense  grid:    88575 G-vectors     FFT dimensions: (  40,  90,  80)

     Smooth grid:    31303 G-vectors     FFT dimensions: (  27,  60,  60)

     Estimated max dynamical RAM per process >     416.19 MB

     Check: negative core charge=   -0.000002

     Initial potential from superposition of free atoms

     starting charge      42.9976, renormalised to      43.0000

     STARTING HUBBARD OCCUPATIONS:

     =================== HUBBARD OCCUPATIONS ===================
     ------------------------ ATOM    3 ------------------------
     Tr[ns(  3)] =   5.00000
     eigenvalues:
       0.500  0.500  0.500  0.500  0.500
     eigenvectors (columns):
       1.000  0.000  0.000  0.000  0.000
       0.000  1.000  0.000  0.000  0.000
       0.000  0.000  1.000  0.000  0.000
       0.000  0.000  0.000  1.000  0.000
       0.000  0.000  0.000  0.000  1.000
     occupation matrix ns (before diag.):
       0.500  0.000  0.000  0.000  0.000
       0.000  0.500  0.000  0.000  0.000
       0.000  0.000  0.500  0.000  0.000
       0.000  0.000  0.000  0.500  0.000
       0.000  0.000  0.000  0.000  0.500

     Number of occupied Hubbard levels =    5.0000

     Atomic wfc used for Hubbard projectors are orthogonalized

     Starting wfcs are   34 randomized atomic wfcs
     Checking if some PAW data can be deallocated... 

     total cpu time spent up to now is        2.1 secs

     Self-consistent Calculation

     iteration #  1     ecut=    60.00 Ry     beta= 0.70
     Davidson diagonalization with overlap
     ethr =  1.00E-02,  avg # of iterations =  2.0

     =================== HUBBARD OCCUPATIONS ===================
     ------------------------ ATOM    3 ------------------------
     Tr[ns(  3)] =   4.11568
     eigenvalues:
       0.212  0.224  0.455  0.557  0.610
     eigenvectors (columns):
      -0.003 -0.238  0.422  0.082 -0.871
       0.970 -0.009 -0.003  0.241  0.020
      -0.002 -0.445 -0.848  0.006 -0.289
      -0.009 -0.863  0.320 -0.023  0.389
       0.242 -0.005  0.022 -0.967 -0.079
     occupation matrix ns (before diag.):
       0.560 -0.001  0.015 -0.100  0.003
      -0.001  0.232 -0.001  0.001 -0.081
       0.015 -0.001  0.422 -0.106  0.003
      -0.100  0.001 -0.106  0.306 -0.003
       0.003 -0.081  0.003 -0.003  0.537

     Number of occupied Hubbard levels =    4.1157

     total cpu time spent up to now is        4.5 secs

     total energy              =    -518.73046027 Ry
     estimated scf accuracy    <       2.74762876 Ry

     iteration #  2     ecut=    60.00 Ry     beta= 0.70
     Davidson diagonalization with overlap
     ethr =  6.39E-03,  avg # of iterations =  5.6

     total cpu time spent up to now is        7.9 secs

     total energy              =    -517.38998250 Ry
     estimated scf accuracy    <      36.31887022 Ry

     iteration #  3     ecut=    60.00 Ry     beta= 0.70
     Davidson diagonalization with overlap
     ethr =  6.39E-03,  avg # of iterations =  3.3

     total cpu time spent up to now is       10.4 secs

     total energy              =    -520.29100847 Ry
     estimated scf accuracy    <       1.10079879 Ry

     iteration #  4     ecut=    60.00 Ry     beta= 0.70
     Davidson diagonalization with overlap
     ethr =  2.56E-03,  avg # of iterations =  2.1

     total cpu time spent up to now is       13.0 secs

     total energy              =    -520.45037421 Ry
     estimated scf accuracy    <       0.21586377 Ry

     iteration #  5     ecut=    60.00 Ry     beta= 0.70
     Davidson diagonalization with overlap
     ethr =  5.02E-04,  avg # of iterations =  4.6

     total cpu time spent up to now is       16.0 secs

     total energy              =    -520.58966430 Ry
     estimated scf accuracy    <       0.08486569 Ry

     iteration #  6     ecut=    60.00 Ry     beta= 0.70
     Davidson diagonalization with overlap
     ethr =  1.97E-04,  avg # of iterations =  1.4

     total cpu time spent up to now is       18.3 secs

     total energy              =    -520.63643847 Ry
     estimated scf accuracy    <       0.07071703 Ry

     iteration #  7     ecut=    60.00 Ry     beta= 0.70
     Davidson diagonalization with overlap
     ethr =  1.64E-04,  avg # of iterations =  4.9

     total cpu time spent up to now is       21.3 secs

     total energy              =    -520.63972127 Ry
     estimated scf accuracy    <       0.27685496 Ry

     iteration #  8     ecut=    60.00 Ry     beta= 0.70
     Davidson diagonalization with overlap
     ethr =  1.64E-04,  avg # of iterations =  2.0

     total cpu time spent up to now is       23.7 secs

     total energy              =    -520.62698769 Ry
     estimated scf accuracy    <       0.16871696 Ry

     iteration #  9     ecut=    60.00 Ry     beta= 0.70
     Davidson diagonalization with overlap
     ethr =  1.64E-04,  avg # of iterations =  2.0

     total cpu time spent up to now is       26.0 secs

     total energy              =    -520.60231156 Ry
     estimated scf accuracy    <       0.10330514 Ry

     iteration # 10     ecut=    60.00 Ry     beta= 0.70
     Davidson diagonalization with overlap
     ethr =  1.64E-04,  avg # of iterations =  1.8

     total cpu time spent up to now is       28.4 secs

     total energy              =    -520.59666429 Ry
     estimated scf accuracy    <       0.04259267 Ry

     iteration # 11     ecut=    60.00 Ry     beta= 0.70
     Davidson diagonalization with overlap
     ethr =  9.91E-05,  avg # of iterations =  2.3

     total cpu time spent up to now is       30.9 secs

     total energy              =    -520.60705367 Ry
     estimated scf accuracy    <       0.00436116 Ry

     iteration # 12     ecut=    60.00 Ry     beta= 0.70
     Davidson diagonalization with overlap
     ethr =  1.01E-05,  avg # of iterations =  6.2

     total cpu time spent up to now is       34.2 secs

     total energy              =    -520.61002632 Ry
     estimated scf accuracy    <       0.00046704 Ry

     iteration # 13     ecut=    60.00 Ry     beta= 0.70
     Davidson diagonalization with overlap
     c_bands:  1 eigenvalues not converged
     c_bands:  4 eigenvalues not converged
     c_bands:  1 eigenvalues not converged
     ethr =  1.09E-06,  avg # of iterations = 15.0

     total cpu time spent up to now is       38.9 secs

     total energy              =    -520.61068090 Ry
     estimated scf accuracy    <       0.00023807 Ry

     iteration # 14     ecut=    60.00 Ry     beta= 0.70
     Davidson diagonalization with overlap
     ethr =  5.54E-07,  avg # of iterations =  2.5

     total cpu time spent up to now is       41.3 secs

     total energy              =    -520.61074097 Ry
     estimated scf accuracy    <       0.00003404 Ry

     iteration # 15     ecut=    60.00 Ry     beta= 0.70
     Davidson diagonalization with overlap
     c_bands:  1 eigenvalues not converged
     c_bands:  2 eigenvalues not converged
     c_bands:  5 eigenvalues not converged
     ethr =  7.92E-08,  avg # of iterations = 12.0

     total cpu time spent up to now is       45.0 secs

     total energy              =    -520.61079053 Ry
     estimated scf accuracy    <       0.00002572 Ry

     iteration # 16     ecut=    60.00 Ry     beta= 0.70
     Davidson diagonalization with overlap
     ethr =  5.98E-08,  avg # of iterations =  1.7

     total cpu time spent up to now is       47.1 secs

     total energy              =    -520.61079507 Ry
     estimated scf accuracy    <       0.00001589 Ry

     iteration # 17     ecut=    60.00 Ry     beta= 0.70
     Davidson diagonalization with overlap
     ethr =  3.70E-08,  avg # of iterations =  2.3

     total cpu time spent up to now is       49.4 secs

     total energy              =    -520.61080372 Ry
     estimated scf accuracy    <       0.00000749 Ry

     iteration # 18     ecut=    60.00 Ry     beta= 0.70
     Davidson diagonalization with overlap
     ethr =  1.74E-08,  avg # of iterations =  4.6

     total cpu time spent up to now is       52.1 secs

     total energy              =    -520.61081047 Ry
     estimated scf accuracy    <       0.00000674 Ry

     iteration # 19     ecut=    60.00 Ry     beta= 0.70
     Davidson diagonalization with overlap
     ethr =  1.57E-08,  avg # of iterations =  2.9

     total cpu time spent up to now is       55.0 secs

     total energy              =    -520.61081488 Ry
     estimated scf accuracy    <       0.00000745 Ry

     iteration # 20     ecut=    60.00 Ry     beta= 0.70
     Davidson diagonalization with overlap
     ethr =  1.57E-08,  avg # of iterations =  1.8

     total cpu time spent up to now is       57.5 secs

     total energy              =    -520.61069934 Ry
     estimated scf accuracy    <       0.00000520 Ry

     iteration # 21     ecut=    60.00 Ry     beta= 0.70
     Davidson diagonalization with overlap
     ethr =  1.21E-08,  avg # of iterations =  7.1

     total cpu time spent up to now is       61.1 secs

     total energy              =    -520.61085106 Ry
     estimated scf accuracy    <       0.00001614 Ry

     iteration # 22     ecut=    60.00 Ry     beta= 0.70
     Davidson diagonalization with overlap
     ethr =  1.21E-08,  avg # of iterations =  2.0

     total cpu time spent up to now is       63.8 secs

     total energy              =    -520.61085506 Ry
     estimated scf accuracy    <       0.00000884 Ry

     iteration # 23     ecut=    60.00 Ry     beta= 0.70
     Davidson diagonalization with overlap
     ethr =  1.21E-08,  avg # of iterations =  4.5

     total cpu time spent up to now is       66.5 secs

     total energy              =    -520.61086298 Ry
     estimated scf accuracy    <       0.00000235 Ry

     iteration # 24     ecut=    60.00 Ry     beta= 0.70
     Davidson diagonalization with overlap
     ethr =  5.46E-09,  avg # of iterations =  4.8

     total cpu time spent up to now is       69.5 secs

     total energy              =    -520.61081608 Ry
     estimated scf accuracy    <       0.00000146 Ry

     iteration # 25     ecut=    60.00 Ry     beta= 0.70
     Davidson diagonalization with overlap
     ethr =  3.40E-09,  avg # of iterations =  5.8

     total cpu time spent up to now is       75.9 secs

     total energy              =    -520.61088611 Ry
     estimated scf accuracy    <       0.00000151 Ry

     iteration # 26     ecut=    60.00 Ry     beta= 0.70
     Davidson diagonalization with overlap
     ethr =  3.40E-09,  avg # of iterations =  4.1

     total cpu time spent up to now is       80.0 secs

     End of self-consistent calculation

     =================== HUBBARD OCCUPATIONS ===================
     ------------------------ ATOM    3 ------------------------
     Tr[ns(  3)] =   5.21625
     eigenvalues:
       0.194  0.320  0.400  0.718  0.976
     eigenvectors (columns):
       0.547  0.000 -0.202 -0.004  0.813
      -0.001 -0.958 -0.005  0.287  0.001
      -0.805  0.004 -0.395  0.002  0.443
       0.232  0.005 -0.896  0.002 -0.379
      -0.004 -0.287 -0.003 -0.958 -0.003
     occupation matrix ns (before diag.):
       0.719  0.000  0.298 -0.203  0.000
       0.000  0.353  0.001  0.000 -0.110
       0.298  0.001  0.380 -0.058 -0.002
      -0.203  0.000 -0.058  0.471  0.000
       0.000 -0.110 -0.002  0.000  0.685

     Number of occupied Hubbard levels =    5.2162

          k = 0.0000 0.0000 0.0000 (  3895 PWs)   bands (ev):

   -73.2433 -42.6382 -41.8741 -41.2909 -12.0223 -10.6039 -10.5469 -10.4017
     0.6114   1.3742   2.0985   2.4254   2.7932   3.8242   3.9593   4.2988
     4.4680   5.0395   5.3869   5.4372   5.7238   6.5547   7.6718   9.5014
    10.0745  11.3155

          k = 0.0000 0.0000 0.1849 (  3893 PWs)   bands (ev):

   -73.2432 -42.6382 -41.8742 -41.2909 -11.8330 -10.8131 -10.6249 -10.3647
     0.8125   1.6110   1.9107   2.8033   2.8101   3.7791   3.9120   4.3084
     4.4037   4.7054   5.2256   5.3514   5.4891   6.5208   7.7708   9.2417
    10.1221  12.4347

          k = 0.0000 0.0000-0.3698 (  3894 PWs)   bands (ev):

   -73.2431 -42.6382 -41.8742 -41.2909 -11.5139 -11.1127 -10.7044 -10.3669
     1.1561   1.5753   2.3404   2.8234   2.8464   3.3293   3.7598   4.2804
     4.4929   4.5049   5.1405   5.2601   5.4129   6.4857   7.8185   9.0538
    10.1700  14.1129

          k = 0.0000 0.1185-0.0954 (  3888 PWs)   bands (ev):

   -73.2433 -42.6382 -41.8741 -41.2909 -11.9187 -10.7042 -10.6123 -10.3777
     0.8456   1.3620   2.0172   2.5984   2.8286   3.8283   3.9575   4.2642
     4.4272   4.8155   5.1713   5.3794   5.7088   6.5834   7.6912   9.5605
    10.1188  12.1064

          k = 0.0000 0.1185 0.0895 (  3903 PWs)   bands (ev):

   -73.2433 -42.6382 -41.8741 -41.2909 -11.8841 -10.8872 -10.5466 -10.2927
     0.7326   1.7164   1.9405   2.6004   2.7741   3.6624   3.8187   4.4072
     4.4167   4.9400   5.2246   5.3272   5.5956   6.5590   7.7626   9.2457
    10.0769  12.0523

          k = 0.0000 0.1185-0.4652 (  3923 PWs)   bands (ev):

   -73.2432 -42.6383 -41.8742 -41.2909 -11.5925 -11.1498 -10.6309 -10.2989
     1.0928   1.5199   2.3195   2.7879   2.8575   3.3890   3.7914   4.0309
     4.5193   4.7632   5.1658   5.2284   5.4423   6.5231   7.8533   9.0319
    10.1249  13.4098

          k = 0.0000 0.1185-0.2803 (  3906 PWs)   bands (ev):

   -73.2432 -42.6382 -41.8742 -41.2909 -11.6797 -10.9377 -10.7021 -10.3547
     1.0672   1.6232   2.0345   2.7656   2.8449   3.6504   3.7819   4.2587
     4.3745   4.6470   5.1459   5.2884   5.4504   6.5520   7.7968   9.3249
    10.1661  13.6986

          k = 0.0000-0.2369 0.1908 (  3908 PWs)   bands (ev):

   -73.2432 -42.6382 -41.8742 -41.2909 -11.7846 -10.8809 -10.6250 -10.3597
     0.8642   1.6581   2.1623   2.6936   2.8664   3.4102   3.8288   4.2327
     4.3464   4.7930   5.1355   5.3218   5.7167   6.6113   7.7000   9.6275
    10.1625  13.4424

          k = 0.0000-0.2369 0.3757 (  3905 PWs)   bands (ev):

   -73.2432 -42.6382 -41.8742 -41.2909 -11.7503 -10.9635 -10.6462 -10.2898
     1.1222   1.6183   1.8322   2.6948   2.8068   3.6141   3.8251   4.3853
     4.4660   4.6606   5.1616   5.2649   5.4866   6.5879   7.8025   9.3268
    10.1212  12.9583

          k = 0.0000-0.2369-0.1789 (  3896 PWs)   bands (ev):

   -73.2433 -42.6383 -41.8741 -41.2909 -11.6540 -11.1982 -10.5459 -10.2481
     0.9086   1.7598   2.2139   2.7041   2.7557   3.5708   3.7748   3.8237
     4.5388   4.9515   5.2037   5.2408   5.4896   6.5581   7.8341   9.0052
    10.0796  13.2635

          k = 0.2500-0.0601-0.1366 (  3914 PWs)   bands (ev):

   -73.2403 -42.6352 -41.8684 -41.3305 -11.4648 -10.6821 -10.4627 -10.3324
     1.2426   1.5336   1.9996   2.2807   2.5788   2.8478   3.5127   3.8778
     4.0545   4.7939   5.0253   5.2168   5.8709   6.4474   7.6253   9.2116
     9.7084  13.5441

          k = 0.2500-0.0601 0.0482 (  3892 PWs)   bands (ev):

   -73.2403 -42.6352 -41.8684 -41.3305 -11.5553 -10.5388 -10.4703 -10.3633
     1.2679   1.6605   1.8784   2.3056   2.6541   2.6892   3.5009   3.7027
     4.1325   4.7897   5.1520   5.2060   5.8015   6.5624   7.5561   9.2809
     9.6788  13.2053

          k = 0.2500-0.0601-0.5064 (  3918 PWs)   bands (ev):

   -73.2403 -42.6352 -41.8685 -41.3305 -11.3584 -10.6989 -10.5416 -10.3658
     1.1917   1.5518   2.0472   2.3214   2.4992   2.8434   3.7138   3.9506
     4.1722   4.6914   4.8339   5.1826   5.9330   6.4296   7.6138   9.1843
     9.5967  14.3325

          k = 0.2500-0.0601-0.3215 (  3915 PWs)   bands (ev):

   -73.2403 -42.6352 -41.8685 -41.3305 -11.1821 -10.8974 -10.5508 -10.3493
     1.1985   1.5716   1.9068   2.2144   2.5359   3.2838   3.6003   3.9204
     4.1731   4.6549   4.8014   5.2009   5.9357   6.3476   7.6690   9.2454
     9.5288  14.7263

          k = 0.2500 0.0584-0.2321 (  3915 PWs)   bands (ev):

   -73.2403 -42.6352 -41.8685 -41.3305 -11.3608 -10.6973 -10.5390 -10.3673
     1.1888   1.5531   2.0472   2.3155   2.5035   2.8444   3.7121   3.9442
     4.1773   4.6976   4.8342   5.1842   5.9327   6.4275   7.6164   9.1720
     9.6043  14.3248

          k = 0.2500 0.0584-0.0472 (  3895 PWs)   bands (ev):

   -73.2403 -42.6352 -41.8684 -41.3305 -11.5570 -10.5376 -10.4697 -10.3631
     1.2671   1.6602   1.8807   2.3034   2.6519   2.6873   3.5047   3.6944
     4.1395   4.7844   5.1640   5.2067   5.7946   6.5641   7.5561   9.2781
     9.6807  13.2012

          k = 0.2500 0.0584-0.6018 (  3909 PWs)   bands (ev):

   -73.2403 -42.6352 -41.8684 -41.3305 -11.4645 -10.6805 -10.4639 -10.3332
     1.2415   1.5376   1.9968   2.2801   2.5840   2.8418   3.5148   3.8731
     4.0610   4.7888   5.0245   5.2172   5.8731   6.4509   7.6219   9.2180
     9.7017  13.5517

          k = 0.2500 0.0584-0.4169 (  3913 PWs)   bands (ev):

   -73.2403 -42.6352 -41.8685 -41.3305 -11.1811 -10.8972 -10.5504 -10.3511
     1.1981   1.5713   1.9035   2.2145   2.5364   3.2917   3.6061   3.9176
     4.1659   4.6534   4.8027   5.2026   5.9380   6.3474   7.6668   9.2430
     9.5280  14.7331

          k = 0.2500-0.2970 0.0542 (  3925 PWs)   bands (ev):

   -73.2403 -42.6352 -41.8685 -41.3305 -11.2939 -10.7887 -10.5591 -10.3324
     1.3575   1.6781   1.9142   2.3009   2.4939   2.9374   3.4305   3.8690
     4.1730   4.6596   4.8741   5.2674   5.9004   6.4460   7.6409   9.1965
     9.6633  14.3029

          k = 0.2500-0.2970 0.2390 (  3913 PWs)   bands (ev):

   -73.2403 -42.6352 -41.8685 -41.3305 -11.4211 -10.6698 -10.5165 -10.3508
     1.2705   1.7926   2.0269   2.3268   2.5063   2.7678   3.3124   3.7265
     4.2809   4.6800   4.9565   5.2452   5.8800   6.5590   7.5587   9.2701
     9.6018  14.0920

          k = 0.2500-0.2970-0.3156 (  3910 PWs)   bands (ev):

   -73.2403 -42.6352 -41.8684 -41.3305 -11.4204 -10.7415 -10.4820 -10.3075
     1.4442   1.6229   1.8126   2.4060   2.6220   2.8784   3.2288   3.7332
     3.9774   4.7991   5.1010   5.3077   5.8320   6.4618   7.6434   9.2557
     9.7637  13.4584

          k = 0.2500-0.2970-0.1307 (  3919 PWs)   bands (ev):

   -73.2403 -42.6352 -41.8684 -41.3305 -11.2505 -10.9394 -10.4768 -10.2996
     1.3750   1.6205   1.8551   2.3336   2.5883   2.9882   3.2566   3.9216
     4.0400   4.6746   5.0327   5.2807   5.8969   6.3444   7.7038   9.3321
     9.6336  14.2056

          k = 0.2500-0.1786-0.0412 (  3912 PWs)   bands (ev):

   -73.2403 -42.6352 -41.8684 -41.3305 -11.4178 -10.7434 -10.4826 -10.3081
     1.4443   1.6184   1.8103   2.4185   2.6215   2.8753   3.2310   3.7402
     3.9748   4.8008   5.0850   5.3140   5.8374   6.4563   7.6448   9.2510
     9.7665  13.4599

          k = 0.2500-0.1786 0.1436 (  3918 PWs)   bands (ev):

   -73.2403 -42.6352 -41.8685 -41.3305 -11.4187 -10.6727 -10.5165 -10.3509
     1.2692   1.7928   2.0270   2.3340   2.5053   2.7700   3.3077   3.7298
     4.2765   4.6775   4.9577   5.2442   5.8826   6.5573   7.5586   9.2716
     9.6013  14.1015

          k = 0.2500-0.1786-0.4110 (  3924 PWs)   bands (ev):

   -73.2403 -42.6352 -41.8685 -41.3305 -11.2952 -10.7880 -10.5607 -10.3300
     1.3602   1.6815   1.9148   2.3039   2.4856   2.9381   3.4166   3.8746
     4.1741   4.6635   4.8752   5.2647   5.8951   6.4506   7.6396   9.2070
     9.6596  14.2911

          k = 0.2500-0.1786-0.2261 (  3912 PWs)   bands (ev):

   -73.2403 -42.6352 -41.8684 -41.3305 -11.2510 -10.9404 -10.4759 -10.2987
     1.3764   1.6164   1.8628   2.3366   2.5852   2.9814   3.2517   3.9223
     4.0441   4.6728   5.0401   5.2766   5.8943   6.3442   7.7055   9.3342
     9.6349  14.2021

          k =-0.5000 0.1202 0.2733 (  3922 PWs)   bands (ev):

   -73.2379 -42.6322 -41.8628 -41.3698 -10.6474 -10.5724 -10.5499 -10.4568
     0.5486   1.0140   1.7173   2.1953   2.4656   3.3418   3.7585   4.1000
     4.2747   4.4251   4.4894   4.9497   5.6877   6.3916   7.4829   9.4197
     9.7549  14.9097

          k =-0.5000 0.1202 0.4582 (  3915 PWs)   bands (ev):

   -73.2378 -42.6322 -41.8628 -41.3698 -10.6989 -10.6371 -10.5301 -10.3656
     0.7607   1.0506   1.8325   2.2258   2.5302   3.2515   3.5340   3.9395
     4.1073   4.2428   4.6740   4.8564   5.6822   6.5442   7.4604   9.2287
     9.7437  15.4282

          k =-0.5000 0.1202-0.0965 (  3934 PWs)   bands (ev):

   -73.2378 -42.6322 -41.8628 -41.3698 -10.7374 -10.6786 -10.5082 -10.3129
     0.9300   1.2012   2.0211   2.2768   2.5598   2.9657   3.2016   3.8650
     4.0307   4.2466   4.6006   4.8769   5.6700   6.6603   7.4415   9.0354
     9.7619  15.5751

          k =-0.5000 0.2387 0.1779 (  3931 PWs)   bands (ev):

   -73.2379 -42.6322 -41.8628 -41.3698 -10.6474 -10.5741 -10.5483 -10.4567
     0.6096   0.9289   1.7346   2.1346   2.4855   3.4515   3.8285   4.0023
     4.2508   4.4255   4.4895   4.9382   5.6867   6.3958   7.4769   9.4266
     9.7364  15.2682

          k =-0.5000 0.2387 0.3628 (  3926 PWs)   bands (ev):

   -73.2378 -42.6322 -41.8628 -41.3698 -10.6885 -10.6596 -10.5189 -10.3647
     0.7394   1.0988   1.8294   2.0976   2.7046   3.1803   3.5273   3.9118
     4.0985   4.2534   4.7113   4.8561   5.6794   6.5475   7.4597   9.2148
     9.7575  15.2183

          k =-0.5000 0.2387-0.1919 (  3912 PWs)   bands (ev):

   -73.2378 -42.6322 -41.8628 -41.3698 -10.7513 -10.6594 -10.5175 -10.3085
     0.9610   1.1461   2.0617   2.2639   2.6106   2.8951   3.2650   3.8388
     3.9533   4.2605   4.5968   4.9154   5.6750   6.6678   7.4401   9.0392
     9.7550  15.5704

          k =-0.5000 0.2387-0.0070 (  3926 PWs)   bands (ev):

   -73.2379 -42.6322 -41.8628 -41.3698 -10.6892 -10.6531 -10.5227 -10.3668
     0.7359   1.1037   1.8216   2.0963   2.7031   3.1856   3.5237   3.9280
     4.1009   4.2522   4.7088   4.8532   5.6805   6.5433   7.4578   9.2218
     9.7542  15.2059

          k =-0.5000-0.1167 0.4641 (  3926 PWs)   bands (ev):

   -73.2379 -42.6322 -41.8628 -41.3698 -10.6471 -10.5719 -10.5524 -10.4549
     0.5495   1.0183   1.7148   2.1765   2.4537   3.3435   3.7896   4.1086
     4.2760   4.4271   4.4842   4.9483   5.6885   6.3880   7.4778   9.4200
     9.7517  14.9028

          k =-0.5000-0.1167 0.6490 (  3915 PWs)   bands (ev):

   -73.2378 -42.6322 -41.8628 -41.3698 -10.7017 -10.6388 -10.5286 -10.3623
     0.7647   1.0517   1.8294   2.2216   2.5132   3.2601   3.5335   3.9488
     4.1060   4.2467   4.6762   4.8579   5.6817   6.5443   7.4583   9.2244
     9.7439  15.4429

          k =-0.5000-0.1167 0.0943 (  3928 PWs)   bands (ev):

   -73.2378 -42.6322 -41.8628 -41.3698 -10.7406 -10.6829 -10.5042 -10.3089
     0.9410   1.1965   2.0230   2.2713   2.5416   2.9727   3.2029   3.8513
     4.0404   4.2510   4.6037   4.8822   5.6684   6.6651   7.4406   9.0222
     9.7651  15.5841

     the Fermi energy is     6.5278 ev

!    total energy              =    -520.61088775 Ry
     total all-electron energy =     -3720.864146 Ry
     estimated scf accuracy    <       0.00000089 Ry
     smearing contrib. (-TS)   =      -0.00433257 Ry
     internal energy E=F+TS    =    -520.60655519 Ry

     The total energy is F=E-TS. E is the sum of the following terms:
     one-electron contribution =    -242.60262873 Ry
     hartree contribution      =     145.93777135 Ry
     xc contribution           =     -61.15767256 Ry
     ewald contribution        =    -184.29043699 Ry
     Hubbard energy            =       0.24063341 Ry
     one-center paw contrib.   =    -178.73422166 Ry

     convergence has been achieved in  26 iterations
     force_hub    :     13.31s CPU      2.38s WALL (       1 calls)
     dndtau       :     11.73s CPU      2.13s WALL (     756 calls)
     dprojdtau    :      1.78s CPU      0.32s WALL (     756 calls)
     calc_doverla :      6.94s CPU      1.17s WALL (     756 calls)
     matel_dSdtau :      8.66s CPU      1.53s WALL (    1512 calls)

     Forces acting on atoms (cartesian axes, Ry/au):

     atom    1 type  1   force =     0.00190110   -0.01513242   -0.00897944
     atom    2 type  1   force =     0.00016671    0.00791713   -0.00953786
     atom    3 type  3   force =    -0.00030932   -0.04376028   -0.00950880
     atom    4 type  2   force =    -0.00123302    0.03615083    0.02246435
     atom    5 type  2   force =     0.00119267   -0.01008060   -0.00434147
     atom    6 type  2   force =    -0.00081988    0.01151625    0.01100111
     atom    7 type  2   force =    -0.00089826    0.01338909   -0.00109791

     Total force =     0.069591     Total SCF correction =     0.001565


     Computing stress (Cartesian axis) and pressure

     stres_hub    :     39.81s CPU      6.23s WALL (       1 calls)
     dprojdepsilo :     33.09s CPU      5.22s WALL (     324 calls)
     dprojdeps1   :      3.38s CPU      0.54s WALL (     324 calls)
     dprojdeps2   :     16.84s CPU      2.97s WALL (     324 calls)
     dprojdeps3   :     12.88s CPU      1.71s WALL (     324 calls)
          total   stress  (Ry/bohr**3)                   (kbar)     P=      -40.10
  -0.00005697   0.00000127  -0.00000056           -8.38        0.19       -0.08
   0.00000127  -0.00044251  -0.00016605            0.19      -65.10      -24.43
  -0.00000056  -0.00016605  -0.00031821           -0.08      -24.43      -46.81


     BFGS Geometry Optimization
     Energy error            =      9.3E-03 Ry
     Gradient error          =      4.4E-02 Ry/Bohr
     Cell gradient error     =      6.5E+01 kbar

     number of scf cycles    =   1
     number of bfgs steps    =   0

     enthalpy           new  =    -520.6108877550 Ry

     new trust radius        =       0.0527622036 bohr
     new conv_thr            =       0.0000010000 Ry

     new unit-cell volume =    488.32674 a.u.^3 (    72.36256 Ang^3 )
     density =      3.84471 g/cm^3

CELL_PARAMETERS (angstrom)
   2.953887188   0.000093587  -0.000041734
   1.498711330   6.173557099  -0.025936151
   2.956588885   3.169340434   3.954802525

ATOMIC_POSITIONS (angstrom)
Mg               3.4209142430        4.8256251740        1.5026767520
Mg               3.4270303443        1.0685254870        0.3851000177
Mn               4.9084501730        2.3405956763        2.5226319562
O                3.4534732426        6.8722486313        1.7513984212
O                4.9029432276        4.2942096633        2.8833586714
O                3.4318439286        2.7995663023        1.3653081267
O                4.9308368513        8.3465342924        3.8549528165



     Writing config-only to output data dir .\out\\qgan.save\ :
     XML data file
     NEW-OLD atomic charge density approx. for the potential
     New effective cutoffs (rho, wfc):  492.97   61.66

     Check: negative core charge=   -0.000002

     Atomic wfc used for Hubbard projectors are orthogonalized


     total cpu time spent up to now is       91.9 secs

     Self-consistent Calculation

     iteration #  1     ecut=    60.00 Ry     beta= 0.70
     Davidson diagonalization with overlap
     ethr =  1.00E-06,  avg # of iterations = 13.6

     =================== HUBBARD OCCUPATIONS ===================
     ------------------------ ATOM    3 ------------------------
     Tr[ns(  3)] =   5.29008
     eigenvalues:
       0.214  0.323  0.407  0.726  0.974
     eigenvectors (columns):
       0.549 -0.000  0.200 -0.003  0.811
      -0.001 -0.958  0.004  0.287  0.001
      -0.800  0.004  0.408  0.003  0.441
       0.243  0.004  0.891  0.002 -0.384
      -0.004 -0.287  0.003 -0.958 -0.002
     occupation matrix ns (before diag.):
       0.722  0.000  0.287 -0.202  0.000
       0.000  0.357  0.000  0.000 -0.111
       0.287  0.000  0.394 -0.059 -0.002
      -0.202  0.000 -0.059  0.479  0.000
       0.000 -0.111 -0.002  0.000  0.693

     Number of occupied Hubbard levels =    5.2901

     total cpu time spent up to now is      100.3 secs

     total energy              =    -520.61033874 Ry
     estimated scf accuracy    <       0.00923208 Ry

     iteration #  2     ecut=    60.00 Ry     beta= 0.70
     Davidson diagonalization with overlap
     ethr =  2.15E-05,  avg # of iterations =  5.1

     total cpu time spent up to now is      104.5 secs

     total energy              =    -520.60334847 Ry
     estimated scf accuracy    <       0.15587126 Ry

     iteration #  3     ecut=    60.00 Ry     beta= 0.70
     Davidson diagonalization with overlap
     ethr =  2.15E-05,  avg # of iterations =  3.8

     total cpu time spent up to now is      107.5 secs

     total energy              =    -520.61583013 Ry
     estimated scf accuracy    <       0.00389490 Ry

     iteration #  4     ecut=    60.00 Ry     beta= 0.70
     Davidson diagonalization with overlap
     ethr =  9.06E-06,  avg # of iterations =  2.2

     total cpu time spent up to now is      110.4 secs

     total energy              =    -520.61669110 Ry
     estimated scf accuracy    <       0.00118999 Ry

     iteration #  5     ecut=    60.00 Ry     beta= 0.70
     Davidson diagonalization with overlap
     ethr =  2.77E-06,  avg # of iterations =  2.4

     total cpu time spent up to now is      113.2 secs

     total energy              =    -520.61687348 Ry
     estimated scf accuracy    <       0.00010171 Ry

     iteration #  6     ecut=    60.00 Ry     beta= 0.70
     Davidson diagonalization with overlap
     ethr =  2.37E-07,  avg # of iterations = 10.6

     total cpu time spent up to now is      117.2 secs

     total energy              =    -520.61696132 Ry
     estimated scf accuracy    <       0.00011179 Ry

     iteration #  7     ecut=    60.00 Ry     beta= 0.70
     Davidson diagonalization with overlap
     ethr =  2.37E-07,  avg # of iterations =  1.1

     total cpu time spent up to now is      119.5 secs

     total energy              =    -520.61696925 Ry
     estimated scf accuracy    <       0.00001731 Ry

     iteration #  8     ecut=    60.00 Ry     beta= 0.70
     Davidson diagonalization with overlap
     ethr =  4.03E-08,  avg # of iterations =  8.9

     total cpu time spent up to now is      123.6 secs

     total energy              =    -520.61698420 Ry
     estimated scf accuracy    <       0.00002114 Ry

     iteration #  9     ecut=    60.00 Ry     beta= 0.70
     Davidson diagonalization with overlap
     ethr =  4.03E-08,  avg # of iterations =  1.5

     total cpu time spent up to now is      125.9 secs

     total energy              =    -520.61698333 Ry
     estimated scf accuracy    <       0.00001129 Ry

     iteration # 10     ecut=    60.00 Ry     beta= 0.70
     Davidson diagonalization with overlap
     ethr =  2.62E-08,  avg # of iterations =  2.5

     total cpu time spent up to now is      129.0 secs

     total energy              =    -520.61698485 Ry
     estimated scf accuracy    <       0.00000167 Ry

     iteration # 11     ecut=    60.00 Ry     beta= 0.70
     Davidson diagonalization with overlap
     c_bands:  1 eigenvalues not converged
     ethr =  3.88E-09,  avg # of iterations = 13.7

     total cpu time spent up to now is      134.4 secs

     End of self-consistent calculation

     =================== HUBBARD OCCUPATIONS ===================
     ------------------------ ATOM    3 ------------------------
     Tr[ns(  3)] =   5.22550
     eigenvalues:
       0.207  0.319  0.400  0.713  0.973
     eigenvectors (columns):
       0.550 -0.000  0.205 -0.000 -0.810
      -0.001 -0.958  0.002 -0.288  0.000
      -0.799  0.002  0.409 -0.001 -0.440
       0.242  0.002  0.889 -0.002  0.389
      -0.001 -0.288  0.003  0.958  0.000
     occupation matrix ns (before diag.):
       0.717  0.000  0.289 -0.206  0.000
       0.000  0.352  0.000  0.000 -0.109
       0.289  0.000  0.388 -0.061 -0.001
      -0.206  0.000 -0.061  0.476 -0.000
       0.000 -0.109 -0.001 -0.000  0.680

     Number of occupied Hubbard levels =    5.2255

          k = 0.0000 0.0000 0.0000 (  3895 PWs)   bands (ev):

   -72.9457 -42.3603 -41.5844 -40.9905 -11.9097 -10.5487 -10.2996 -10.1271
     0.7624   1.4974   2.1880   2.6206   2.9992   3.9453   4.1726   4.3853
     4.6331   5.3622   5.6019   5.6832   6.0422   6.9593   7.9703   9.9839
    10.3964  11.7015

          k = 0.0000 0.0008 0.1864 (  3893 PWs)   bands (ev):

   -72.9456 -42.3604 -41.5844 -40.9905 -11.7152 -10.7136 -10.3767 -10.1461
     0.9575   1.7562   2.0038   3.0013   3.0095   3.8981   4.0589   4.5019
     4.5782   4.9448   5.5015   5.5957   5.7754   6.9212   8.0732   9.7060
    10.4447  12.8120

          k =-0.0000-0.0016-0.3727 (  3894 PWs)   bands (ev):

   -72.9455 -42.3604 -41.5844 -40.9905 -11.3872 -10.9995 -10.4519 -10.1810
     1.2273   1.7846   2.5125   3.0108   3.0150   3.4720   3.8827   4.5129
     4.5990   4.7724   5.4366   5.5024   5.6577   6.8824   8.1352   9.4956
    10.4933  14.4338

          k =-0.0000 0.1194-0.0957 (  3888 PWs)   bands (ev):

   -72.9456 -42.3603 -41.5844 -40.9905 -11.8072 -10.5922 -10.4152 -10.1116
     0.9965   1.4899   2.1564   2.7503   3.0348   3.9633   4.1298   4.3352
     4.6805   5.0218   5.4463   5.6297   6.0376   6.9849   7.9798  10.0446
    10.4420  12.4899

          k =-0.0000 0.1202 0.0907 (  3903 PWs)   bands (ev):

   -72.9457 -42.3604 -41.5844 -40.9905 -11.7568 -10.7979 -10.2818 -10.0893
     0.8970   1.8155   2.0411   2.8232   2.9734   3.8207   3.9385   4.5054
     4.6366   5.1948   5.5274   5.5808   5.8608   6.9585   8.0684   9.7005
    10.3982  12.4526

          k =-0.0000 0.1178-0.4684 (  3923 PWs)   bands (ev):

   -72.9456 -42.3604 -41.5844 -40.9905 -11.4342 -11.0781 -10.3634 -10.1172
     1.2548   1.6203   2.4471   2.9804   3.0901   3.5065   3.9129   4.2972
     4.6156   5.0362   5.4264   5.4829   5.7010   6.9186   8.1659   9.4744
    10.4469  13.7929

          k =-0.0000 0.1186-0.2820 (  3906 PWs)   bands (ev):

   -72.9456 -42.3604 -41.5844 -40.9905 -11.5662 -10.8041 -10.4890 -10.1340
     1.2012   1.7563   2.1851   2.9551   3.0439   3.8104   3.9115   4.4596
     4.4853   4.8893   5.4050   5.5375   5.7628   6.9496   8.0965   9.7871
    10.4899  14.0529

          k = 0.0000-0.2388 0.1913 (  3908 PWs)   bands (ev):

   -72.9456 -42.3603 -41.5844 -40.9905 -11.6774 -10.7075 -10.4820 -10.0995
     1.0022   1.7915   2.3524   2.8142   3.0729   3.5998   3.9829   4.2825
     4.5596   5.0090   5.4245   5.5759   6.0421   7.0103   7.9821  10.1111
    10.4869  13.7900

          k = 0.0000-0.2380 0.3777 (  3905 PWs)   bands (ev):

   -72.9456 -42.3604 -41.5844 -40.9905 -11.6205 -10.8729 -10.3924 -10.0822
     1.2915   1.7465   1.9484   2.8746   3.0057   3.7717   3.9561   4.4626
     4.7304   4.8874   5.4135   5.5234   5.7939   6.9850   8.1047   9.7839
    10.4436  13.3681

          k = 0.0000-0.2403-0.1814 (  3896 PWs)   bands (ev):

   -72.9457 -42.3604 -41.5844 -40.9905 -11.4730 -11.1488 -10.2765 -10.0677
     1.1037   1.7939   2.3260   2.9469   2.9640   3.7003   3.9445   4.0480
     4.6250   5.1964   5.4701   5.5182   5.7660   6.9531   8.1425   9.4418
    10.4005  13.6714

          k = 0.2504-0.0614-0.1380 (  3914 PWs)   bands (ev):

   -72.9426 -42.3573 -41.5785 -41.0313 -11.3433 -10.5786 -10.2319 -10.1033
     1.3743   1.6517   2.1172   2.4144   2.7651   3.0338   3.7570   4.0192
     4.2455   5.0010   5.2869   5.4644   6.1348   6.8487   7.9548   9.6486
    10.0769  13.9025

          k = 0.2504-0.0606 0.0484 (  3892 PWs)   bands (ev):

   -72.9426 -42.3572 -41.5785 -41.0313 -11.4423 -10.4434 -10.2757 -10.0797
     1.3980   1.7882   2.0202   2.4335   2.8258   2.8619   3.6860   3.9277
     4.2907   5.0045   5.3708   5.5063   6.0646   6.9565   7.8807   9.7165
    10.0484  13.5648

          k = 0.2504-0.0629-0.5107 (  3918 PWs)   bands (ev):

   -72.9427 -42.3572 -41.5785 -41.0313 -11.2488 -10.5525 -10.3580 -10.1222
     1.3128   1.6593   2.1742   2.5112   2.6923   3.0041   3.9450   4.0754
     4.3655   4.9433   5.0444   5.4329   6.1900   6.8406   7.9461   9.6047
     9.9821  14.6761

          k = 0.2504-0.0621-0.3244 (  3915 PWs)   bands (ev):

   -72.9427 -42.3573 -41.5785 -41.0313 -11.0610 -10.7735 -10.3165 -10.1472
     1.3116   1.6545   2.0573   2.4041   2.7566   3.3818   3.8330   4.1329
     4.3499   4.8837   5.0119   5.4361   6.2027   6.7564   8.0097   9.7219
     9.8555  15.0471

          k = 0.2504 0.0580-0.2337 (  3915 PWs)   bands (ev):

   -72.9427 -42.3572 -41.5785 -41.0313 -11.2510 -10.5517 -10.3553 -10.1231
     1.3104   1.6610   2.1743   2.5069   2.6950   3.0038   3.9416   4.0705
     4.3719   4.9513   5.0408   5.4338   6.1909   6.8397   7.9477   9.5986
     9.9843  14.6689

          k = 0.2504 0.0588-0.0473 (  3895 PWs)   bands (ev):

   -72.9426 -42.3572 -41.5785 -41.0313 -11.4440 -10.4428 -10.2742 -10.0796
     1.3975   1.7872   2.0226   2.4311   2.8145   2.8707   3.6859   3.9218
     4.2985   4.9977   5.3839   5.5055   6.0597   6.9578   7.8805   9.7146
    10.0499  13.5608

          k = 0.2503 0.0565-0.6064 (  3909 PWs)   bands (ev):

   -72.9426 -42.3573 -41.5785 -41.0313 -11.3434 -10.5766 -10.2337 -10.1036
     1.3722   1.6550   2.1153   2.4135   2.7722   3.0273   3.7578   4.0194
     4.2484   4.9966   5.2851   5.4658   6.1368   6.8513   7.9522   9.6499
    10.0748  13.9101

          k = 0.2503 0.0572-0.4200 (  3913 PWs)   bands (ev):

   -72.9427 -42.3573 -41.5785 -41.0313 -11.0608 -10.7718 -10.3173 -10.1485
     1.3104   1.6548   2.0547   2.4038   2.7577   3.3888   3.8373   4.1302
     4.3446   4.8814   5.0138   5.4375   6.2042   6.7573   8.0075   9.7200
     9.8542  15.0521

          k = 0.2504-0.3001 0.0534 (  3925 PWs)   bands (ev):

   -72.9427 -42.3573 -41.5786 -41.0313 -11.1780 -10.6586 -10.3521 -10.1036
     1.4785   1.7968   2.0672   2.4484   2.6890   3.1049   3.6404   4.0178
     4.3535   4.9198   5.0940   5.5029   6.1694   6.8524   7.9700   9.6063
    10.0596  14.6514

          k = 0.2504-0.2994 0.2397 (  3913 PWs)   bands (ev):

   -72.9426 -42.3572 -41.5785 -41.0313 -11.3134 -10.4937 -10.3875 -10.0799
     1.3949   1.9118   2.2089   2.4951   2.6786   2.8895   3.4993   3.9093
     4.4743   4.9417   5.1263   5.5323   6.1392   6.9670   7.8779   9.6694
    10.0096  14.4457

          k = 0.2504-0.3017-0.3194 (  3910 PWs)   bands (ev):

   -72.9426 -42.3573 -41.5785 -41.0313 -11.2918 -10.6457 -10.2431 -10.0873
     1.6006   1.7529   1.9038   2.5439   2.7853   3.0581   3.4916   3.8874
     4.1434   5.0442   5.3428   5.5428   6.1068   6.8580   7.9714   9.6723
    10.1517  13.8220

          k = 0.2504-0.3009-0.1330 (  3919 PWs)   bands (ev):

   -72.9426 -42.3573 -41.5785 -41.0313 -11.0797 -10.8752 -10.2225 -10.1071
     1.5377   1.7191   1.9335   2.5127   2.7830   3.1211   3.4880   4.1310
     4.2358   4.8598   5.2990   5.5069   6.1648   6.7516   8.0359   9.8095
     9.9584  14.5594

          k = 0.2504-0.1807-0.0423 (  3912 PWs)   bands (ev):

   -72.9426 -42.3573 -41.5785 -41.0313 -11.2889 -10.6477 -10.2443 -10.0876
     1.5992   1.7521   1.9019   2.5541   2.7861   3.0524   3.4941   3.8922
     4.1428   5.0465   5.3273   5.5490   6.1101   6.8549   7.9722   9.6721
    10.1499  13.8230

          k = 0.2504-0.1800 0.1440 (  3918 PWs)   bands (ev):

   -72.9426 -42.3572 -41.5785 -41.0313 -11.3110 -10.4960 -10.3880 -10.0800
     1.3934   1.9120   2.2095   2.5023   2.6814   2.8858   3.4971   3.9118
     4.4704   4.9384   5.1283   5.5320   6.1405   6.9657   7.8780   9.6698
    10.0098  14.4546

          k = 0.2504-0.1823-0.4151 (  3924 PWs)   bands (ev):

   -72.9427 -42.3573 -41.5785 -41.0313 -11.1790 -10.6592 -10.3517 -10.1021
     1.4810   1.7996   2.0668   2.4513   2.6788   3.1087   3.6289   4.0228
     4.3537   4.9239   5.0954   5.5004   6.1651   6.8542   7.9696   9.6115
    10.0612  14.6407

          k = 0.2504-0.1815-0.2287 (  3912 PWs)   bands (ev):

   -72.9426 -42.3573 -41.5785 -41.0313 -11.0794 -10.8771 -10.2212 -10.1067
     1.5403   1.7151   1.9390   2.5155   2.7782   3.1183   3.4823   4.1326
     4.2385   4.8577   5.3070   5.5025   6.1629   6.7505   8.0377   9.8108
     9.9606  14.5569

          k =-0.5007 0.1227 0.2760 (  3922 PWs)   bands (ev):

   -72.9401 -42.3541 -41.5726 -41.0717 -10.6182 -10.4286 -10.3205 -10.1755
     0.6721   1.1941   1.8400   2.2846   2.5888   3.5312   3.8848   4.2792
     4.4877   4.7314   4.7501   5.2232   5.9549   6.7360   7.8347   9.9102
    10.0879  15.2640

          k =-0.5007 0.1235 0.4624 (  3915 PWs)   bands (ev):

   -72.9401 -42.3541 -41.5726 -41.0717 -10.6720 -10.4486 -10.3022 -10.1258
     0.8827   1.2379   1.9484   2.3565   2.6178   3.4396   3.6725   4.1769
     4.3573   4.4998   4.8825   5.0993   5.9508   6.9012   7.8132   9.7144
    10.0650  15.7771

          k =-0.5007 0.1211-0.0967 (  3934 PWs)   bands (ev):

   -72.9401 -42.3541 -41.5727 -41.0718 -10.7149 -10.4711 -10.2829 -10.0853
     1.0729   1.3588   2.1634   2.4102   2.6674   3.0975   3.3838   4.1171
     4.2724   4.5159   4.8145   5.0483   5.9414   7.0270   7.7958   9.5052
    10.0841  15.9234

          k =-0.5007 0.2421 0.1803 (  3931 PWs)   bands (ev):

   -72.9401 -42.3541 -41.5726 -41.0717 -10.6183 -10.4285 -10.3207 -10.1751
     0.7293   1.1097   1.8454   2.2697   2.5739   3.6722   3.9008   4.2085
     4.4614   4.7123   4.7681   5.2160   5.9538   6.7402   7.8276   9.9253
    10.0619  15.6225

          k =-0.5007 0.2429 0.3667 (  3926 PWs)   bands (ev):

   -72.9401 -42.3541 -41.5726 -41.0717 -10.6733 -10.4532 -10.2965 -10.1253
     0.8724   1.2714   1.9494   2.2162   2.8050   3.3521   3.6774   4.1518
     4.3598   4.5064   4.9107   5.0998   5.9487   6.9058   7.8125   9.6980
    10.0810  15.5700

          k =-0.5007 0.2405-0.1924 (  3912 PWs)   bands (ev):

   -72.9401 -42.3541 -41.5726 -41.0717 -10.7187 -10.4653 -10.2880 -10.0820
     1.0949   1.3197   2.1481   2.4593   2.7126   3.0233   3.4386   4.0828
     4.2182   4.5153   4.8028   5.0994   5.9456   7.0341   7.7950   9.5115
    10.0748  15.9113

          k =-0.5007 0.2413-0.0060 (  3926 PWs)   bands (ev):

   -72.9401 -42.3541 -41.5727 -41.0717 -10.6715 -10.4508 -10.3001 -10.1259
     0.8696   1.2746   1.9419   2.2168   2.8028   3.3578   3.6741   4.1658
     4.3616   4.5056   4.9088   5.0973   5.9495   6.9028   7.8102   9.7033
    10.0795  15.5553

          k =-0.5007-0.1161 0.4673 (  3926 PWs)   bands (ev):

   -72.9401 -42.3541 -41.5726 -41.0717 -10.6187 -10.4264 -10.3238 -10.1735
     0.6741   1.1963   1.8371   2.2689   2.5771   3.5347   3.9063   4.2910
     4.4884   4.7361   4.7445   5.2217   5.9555   6.7343   7.8292   9.9083
    10.0874  15.2539

          k =-0.5007-0.1153 0.6537 (  3915 PWs)   bands (ev):

   -72.9401 -42.3541 -41.5726 -41.0717 -10.6744 -10.4492 -10.3010 -10.1236
     0.8877   1.2376   1.9446   2.3520   2.6047   3.4465   3.6715   4.1884
     4.3508   4.5061   4.8831   5.1014   5.9505   6.9021   7.8109   9.7101
    10.0654  15.7923

          k =-0.5007-0.1176 0.0946 (  3928 PWs)   bands (ev):

   -72.9401 -42.3541 -41.5727 -41.0717 -10.7185 -10.4735 -10.2790 -10.0828
     1.0843   1.3547   2.1611   2.4044   2.6563   3.0988   3.3890   4.1053
     4.2805   4.5155   4.8215   5.0515   5.9403   7.0311   7.7952   9.4940
    10.0860  15.9336

     the Fermi energy is     6.9223 ev

!    total energy              =    -520.61698808 Ry
     total all-electron energy =     -3720.870247 Ry
     estimated scf accuracy    <       0.00000010 Ry
     smearing contrib. (-TS)   =      -0.00506904 Ry
     internal energy E=F+TS    =    -520.61191904 Ry

     The total energy is F=E-TS. E is the sum of the following terms:
     one-electron contribution =    -241.68125657 Ry
     hartree contribution      =     145.86770765 Ry
     xc contribution           =     -61.24684109 Ry
     ewald contribution        =    -185.05325382 Ry
     Hubbard energy            =       0.24430929 Ry
     one-center paw contrib.   =    -178.74258450 Ry

     convergence has been achieved in  11 iterations
     force_hub    :     28.12s CPU      4.84s WALL (       2 calls)
     dndtau       :     24.77s CPU      4.29s WALL (    1512 calls)
     dprojdtau    :      3.69s CPU      0.60s WALL (    1512 calls)
     calc_doverla :     14.81s CPU      2.38s WALL (    1512 calls)
     matel_dSdtau :     18.67s CPU      3.12s WALL (    3024 calls)

     Forces acting on atoms (cartesian axes, Ry/au):

     atom    1 type  1   force =     0.00186519   -0.01312372   -0.00875875
     atom    2 type  1   force =     0.00005486    0.00663561   -0.01601701
     atom    3 type  3   force =    -0.00032764   -0.01556691    0.00548318
     atom    4 type  2   force =    -0.00104342    0.00966292    0.01427626
     atom    5 type  2   force =     0.00101716    0.00049043    0.00020937
     atom    6 type  2   force =    -0.00053706    0.00480820   -0.00125529
     atom    7 type  2   force =    -0.00102911    0.00709347    0.00606224

     Total force =     0.035188     Total SCF correction =     0.000169


     Computing stress (Cartesian axis) and pressure

     stres_hub    :     79.69s CPU     12.08s WALL (       2 calls)
     dprojdepsilo :     66.56s CPU     10.05s WALL (     648 calls)
     dprojdeps1   :      6.92s CPU      1.07s WALL (     648 calls)
     dprojdeps2   :     36.08s CPU      5.73s WALL (     648 calls)
     dprojdeps3   :     23.56s CPU      3.25s WALL (     648 calls)
          total   stress  (Ry/bohr**3)                   (kbar)     P=       -1.51
   0.00008822  -0.00000061  -0.00000152           12.98       -0.09       -0.22
  -0.00000061  -0.00005308  -0.00004323           -0.09       -7.81       -6.36
  -0.00000152  -0.00004323  -0.00006598           -0.22       -6.36       -9.71

     Energy error            =      6.1E-03 Ry
     Gradient error          =      1.6E-02 Ry/Bohr
     Cell gradient error     =      1.3E+01 kbar

     number of scf cycles    =   2
     number of bfgs steps    =   1

     enthalpy           old  =    -520.6108877550 Ry
     enthalpy           new  =    -520.6169880797 Ry

     CASE: enthalpy          _new < enthalpy          _old

     new trust radius        =       0.0291409614 bohr
     new conv_thr            =       0.0000001602 Ry

     new unit-cell volume =    486.23993 a.u.^3 (    72.05332 Ang^3 )
     density =      3.86121 g/cm^3

CELL_PARAMETERS (angstrom)
   2.962087083   0.000046514  -0.000200697
   1.502768366   6.151718994  -0.039222070
   2.964526548   3.149600418   3.933995273

ATOMIC_POSITIONS (angstrom)
Mg               3.4317617865        4.7947916881        1.4799673299
Mg               3.4365591970        1.0693362039        0.3689825130
Mn               4.9216333844        2.3122540944        2.5118260916
O                3.4619860111        6.8537126443        1.7422071316
O                4.9171620431        4.2723023416        2.8635767414
O                3.4407906859        2.7910076627        1.3542511378
O                4.9433486366        8.3146982499        3.8274354082



     Writing config-only to output data dir .\out\\qgan.save\ :
     XML data file
     NEW-OLD atomic charge density approx. for the potential
     New effective cutoffs (rho, wfc):  498.19   62.34

     Check: negative core charge=   -0.000002

     Atomic wfc used for Hubbard projectors are orthogonalized


     total cpu time spent up to now is      145.8 secs

     Self-consistent Calculation

     iteration #  1     ecut=    60.00 Ry     beta= 0.70
     Davidson diagonalization with overlap
     ethr =  1.00E-06,  avg # of iterations = 11.1

     =================== HUBBARD OCCUPATIONS ===================
     ------------------------ ATOM    3 ------------------------
     Tr[ns(  3)] =   5.26222
     eigenvalues:
       0.219  0.318  0.403  0.717  0.974
     eigenvectors (columns):
       0.552 -0.000  0.203  0.000 -0.809
      -0.001 -0.958  0.001  0.287  0.000
      -0.796  0.002  0.418  0.001 -0.438
       0.249  0.001  0.886  0.002  0.392
      -0.001 -0.287  0.002 -0.958 -0.000
     occupation matrix ns (before diag.):
       0.721  0.000  0.283 -0.206  0.000
       0.000  0.351  0.000  0.000 -0.110
       0.283  0.000  0.396 -0.061 -0.000
      -0.206  0.000 -0.061  0.479 -0.000
       0.000 -0.110 -0.000 -0.000  0.685

     Number of occupied Hubbard levels =    5.2622

     total cpu time spent up to now is      152.9 secs

     total energy              =    -520.61661663 Ry
     estimated scf accuracy    <       0.00301132 Ry

     iteration #  2     ecut=    60.00 Ry     beta= 0.70
     Davidson diagonalization with overlap
     ethr =  7.00E-06,  avg # of iterations =  5.1

     total cpu time spent up to now is      156.1 secs

     total energy              =    -520.61418338 Ry
     estimated scf accuracy    <       0.04089338 Ry

     iteration #  3     ecut=    60.00 Ry     beta= 0.70
     Davidson diagonalization with overlap
     ethr =  7.00E-06,  avg # of iterations =  3.6

     total cpu time spent up to now is      159.0 secs

     total energy              =    -520.61792948 Ry
     estimated scf accuracy    <       0.00192505 Ry

     iteration #  4     ecut=    60.00 Ry     beta= 0.70
     Davidson diagonalization with overlap
     ethr =  4.48E-06,  avg # of iterations =  2.0

     total cpu time spent up to now is      161.3 secs

     total energy              =    -520.61833354 Ry
     estimated scf accuracy    <       0.00023243 Ry

     iteration #  5     ecut=    60.00 Ry     beta= 0.70
     Davidson diagonalization with overlap
     ethr =  5.41E-07,  avg # of iterations =  4.5

     total cpu time spent up to now is      164.1 secs

     total energy              =    -520.61841411 Ry
     estimated scf accuracy    <       0.00012618 Ry

     iteration #  6     ecut=    60.00 Ry     beta= 0.70
     Davidson diagonalization with overlap
     ethr =  2.93E-07,  avg # of iterations =  1.8

     total cpu time spent up to now is      166.4 secs

     total energy              =    -520.61841882 Ry
     estimated scf accuracy    <       0.00004790 Ry

     iteration #  7     ecut=    60.00 Ry     beta= 0.70
     Davidson diagonalization with overlap
     ethr =  1.11E-07,  avg # of iterations =  2.1

     total cpu time spent up to now is      168.7 secs

     total energy              =    -520.61842558 Ry
     estimated scf accuracy    <       0.00000478 Ry

     iteration #  8     ecut=    60.00 Ry     beta= 0.70
     Davidson diagonalization with overlap
     ethr =  1.11E-08,  avg # of iterations =  8.3

     total cpu time spent up to now is      173.0 secs

     total energy              =    -520.61843147 Ry
     estimated scf accuracy    <       0.00000471 Ry

     iteration #  9     ecut=    60.00 Ry     beta= 0.70
     Davidson diagonalization with overlap
     ethr =  1.10E-08,  avg # of iterations =  1.6

     total cpu time spent up to now is      175.4 secs

     total energy              =    -520.61843169 Ry
     estimated scf accuracy    <       0.00000119 Ry

     iteration # 10     ecut=    60.00 Ry     beta= 0.70
     Davidson diagonalization with overlap
     ethr =  2.78E-09,  avg # of iterations = 10.2

     total cpu time spent up to now is      179.3 secs

     total energy              =    -520.61843287 Ry
     estimated scf accuracy    <       0.00000031 Ry

     iteration # 11     ecut=    60.00 Ry     beta= 0.70
     Davidson diagonalization with overlap
     ethr =  7.09E-10,  avg # of iterations =  8.9

     total cpu time spent up to now is      183.1 secs

     total energy              =    -520.61843317 Ry
     estimated scf accuracy    <       0.00000044 Ry

     iteration # 12     ecut=    60.00 Ry     beta= 0.70
     Davidson diagonalization with overlap
     ethr =  7.09E-10,  avg # of iterations =  2.2

     total cpu time spent up to now is      185.4 secs

     total energy              =    -520.61843310 Ry
     estimated scf accuracy    <       0.00000018 Ry

     iteration # 13     ecut=    60.00 Ry     beta= 0.70
     Davidson diagonalization with overlap
     ethr =  4.17E-10,  avg # of iterations =  5.9

     total cpu time spent up to now is      188.6 secs

     total energy              =    -520.61843349 Ry
     estimated scf accuracy    <       0.00000023 Ry

     iteration # 14     ecut=    60.00 Ry     beta= 0.70
     Davidson diagonalization with overlap
     ethr =  4.17E-10,  avg # of iterations =  1.9

     total cpu time spent up to now is      191.0 secs

     total energy              =    -520.61843306 Ry
     estimated scf accuracy    <       0.00000018 Ry

     iteration # 15     ecut=    60.00 Ry     beta= 0.70
     Davidson diagonalization with overlap
     ethr =  4.17E-10,  avg # of iterations =  2.2

     total cpu time spent up to now is      193.7 secs

     End of self-consistent calculation

     =================== HUBBARD OCCUPATIONS ===================
     ------------------------ ATOM    3 ------------------------
     Tr[ns(  3)] =   5.23091
     eigenvalues:
       0.215  0.316  0.400  0.711  0.973
     eigenvectors (columns):
      -0.545 -0.001  0.205  0.002 -0.813
       0.002 -0.959 -0.001  0.283  0.000
       0.799  0.001  0.419 -0.001 -0.431
      -0.252 -0.001  0.885  0.002  0.392
      -0.002 -0.283  0.001 -0.959 -0.000
     occupation matrix ns (before diag.):
       0.724  0.000  0.282 -0.208 -0.001
       0.000  0.348 -0.000  0.000 -0.107
       0.282 -0.000  0.388 -0.059  0.001
      -0.208  0.000 -0.059  0.476 -0.001
      -0.001 -0.107  0.001 -0.001  0.679

     Number of occupied Hubbard levels =    5.2309

          k = 0.0000 0.0000 0.0000 (  3895 PWs)   bands (ev):

   -72.8698 -42.2973 -41.5130 -40.9092 -11.8903 -10.5735 -10.2345 -10.0157
     0.8057   1.5137   2.1955   2.6829   3.0766   3.9118   4.2160   4.3669
     4.6558   5.4621   5.6380   5.7366   6.1279   7.0986   8.0450  10.1166
    10.4355  11.7784

          k = 0.0000 0.0012 0.1870 (  3893 PWs)   bands (ev):

   -72.8697 -42.2973 -41.5130 -40.9092 -11.6960 -10.7178 -10.3133 -10.0551
     0.9907   1.7950   2.0011   3.0663   3.0797   3.8749   4.0692   4.4805
     4.6653   5.0012   5.5741   5.6510   5.8349   7.0578   8.1474   9.8309
    10.4830  12.8849

          k =-0.0000-0.0024-0.3740 (  3894 PWs)   bands (ev):

   -72.8696 -42.2974 -41.5130 -40.9092 -11.3729 -10.9830 -10.3882 -10.1080
     1.2168   1.8574   2.5492   3.0346   3.0764   3.5110   3.8708   4.5694
     4.5862   4.8557   5.5072   5.5605   5.6935   7.0164   8.2174   9.6083
    10.5307  14.4862

          k =-0.0000 0.1196-0.0958 (  3888 PWs)   bands (ev):

   -72.8697 -42.2973 -41.5130 -40.9092 -11.7898 -10.6033 -10.3595 -10.0032
     1.0311   1.5190   2.1803   2.7921   3.1129   3.9361   4.1535   4.3089
     4.7560   5.0524   5.5248   5.6864   6.1247   7.1219   8.0461  10.1777
    10.4812  12.5649

          k = 0.0000 0.1208 0.0913 (  3903 PWs)   bands (ev):

   -72.8698 -42.2973 -41.5130 -40.9092 -11.7326 -10.8039 -10.2100 -10.0100
     0.9478   1.8031   2.0649   2.9005   3.0437   3.8396   3.9126   4.4838
     4.6939   5.2641   5.6106   5.6399   5.9103   7.0946   8.1442   9.8206
    10.4363  12.5389

          k =-0.0000 0.1172-0.4698 (  3923 PWs)   bands (ev):

   -72.8697 -42.2974 -41.5130 -40.9092 -11.4015 -11.0826 -10.2886 -10.0527
     1.2881   1.6425   2.4553   3.0432   3.1658   3.5225   3.8969   4.3826
     4.5894   5.1168   5.4814   5.5458   5.7445   7.0522   8.2438   9.5897
    10.4843  13.8705

          k =-0.0000 0.1184-0.2828 (  3906 PWs)   bands (ev):

   -72.8697 -42.2973 -41.5130 -40.9092 -11.5521 -10.7885 -10.4401 -10.0440
     1.2202   1.7832   2.2284   3.0027   3.1136   3.8360   3.8953   4.4307
     4.5460   4.9527   5.4733   5.5966   5.8316   7.0841   8.1678   9.9100
    10.5282  14.1173

          k = 0.0000-0.2392 0.1915 (  3908 PWs)   bands (ev):

   -72.8697 -42.2973 -41.5130 -40.9092 -11.6641 -10.6819 -10.4575  -9.9932
     1.0273   1.8262   2.3999   2.8357   3.1517   3.6391   3.9667   4.2434
     4.6110   5.0466   5.5144   5.6357   6.1258   7.1454   8.0429  10.2431
    10.5263  13.8540

          k = 0.0000-0.2380 0.3785 (  3905 PWs)   bands (ev):

   -72.8697 -42.2973 -41.5130 -40.9092 -11.5980 -10.8724 -10.3274 -10.0018
     1.3342   1.7634   1.9723   2.9260   3.0756   3.7973   3.9369   4.4329
     4.7994   4.9482   5.4783   5.5862   5.8608   7.1192   8.1766   9.9045
    10.4818  13.4575

          k =-0.0000-0.2416-0.1825 (  3896 PWs)   bands (ev):

   -72.8698 -42.2974 -41.5130 -40.9092 -11.4223 -11.1704 -10.1977 -10.0081
     1.1749   1.7602   2.3297   3.0117   3.0568   3.7161   3.9249   4.1388
     4.5975   5.2471   5.5375   5.6018   5.8109   7.0863   8.2165   9.5560
    10.4377  13.7608

          k = 0.2497-0.0619-0.1386 (  3914 PWs)   bands (ev):

   -72.8669 -42.2943 -41.5073 -40.9487 -11.3353 -10.5840 -10.1735 -10.0083
     1.3896   1.6678   2.1390   2.4270   2.8198   3.0643   3.8340   4.0216
     4.3039   5.0336   5.3595   5.5365   6.1787   6.9800   8.0470   9.7521
    10.1601  13.9702

          k = 0.2497-0.0607 0.0484 (  3892 PWs)   bands (ev):

   -72.8669 -42.2942 -41.5073 -40.9488 -11.4356 -10.4631 -10.2120  -9.9739
     1.4127   1.8094   2.0537   2.4450   2.8590   2.9076   3.7190   3.9905
     4.3226   5.0368   5.4217   5.6076   6.1072   7.0808   7.9732   9.8139
    10.1367  13.6314

          k = 0.2496-0.0642-0.5126 (  3918 PWs)   bands (ev):

   -72.8669 -42.2943 -41.5073 -40.9488 -11.2490 -10.5434 -10.3102 -10.0234
     1.3221   1.6682   2.1986   2.5727   2.7274   3.0303   3.9910   4.0976
     4.4227   5.0006   5.0840   5.5097   6.2273   6.9774   8.0409   9.6963
    10.0791  14.7362

          k = 0.2496-0.0631-0.3256 (  3915 PWs)   bands (ev):

   -72.8669 -42.2943 -41.5073 -40.9487 -11.0700 -10.7485 -10.2628 -10.0619
     1.3178   1.6443   2.1060   2.4592   2.8009   3.3545   3.9135   4.2020
     4.3867   4.9310   5.0584   5.4987   6.2426   6.8950   8.1080   9.8494
     9.9160  15.1086

          k = 0.2496 0.0577-0.2343 (  3915 PWs)   bands (ev):

   -72.8669 -42.2943 -41.5073 -40.9488 -11.2511 -10.5430 -10.3074 -10.0240
     1.3202   1.6701   2.1995   2.5688   2.7283   3.0291   3.9855   4.0956
     4.4281   5.0102   5.0783   5.5104   6.2287   6.9781   8.0411   9.6958
    10.0769  14.7291

          k = 0.2497 0.0589-0.0473 (  3895 PWs)   bands (ev):

   -72.8669 -42.2942 -41.5073 -40.9488 -11.4373 -10.4628 -10.2102  -9.9739
     1.4122   1.8086   2.0553   2.4431   2.8458   2.9197   3.7169   3.9865
     4.3296   5.0296   5.4343   5.6067   6.1032   7.0819   7.9731   9.8127
    10.1378  13.6274

          k = 0.2496 0.0554-0.6084 (  3909 PWs)   bands (ev):

   -72.8669 -42.2943 -41.5073 -40.9487 -11.3353 -10.5819 -10.1753 -10.0087
     1.3873   1.6703   2.1373   2.4258   2.8289   3.0575   3.8341   4.0239
     4.3061   5.0294   5.3564   5.5381   6.1808   6.9817   8.0454   9.7485
    10.1620  13.9777

          k = 0.2496 0.0565-0.4214 (  3913 PWs)   bands (ev):

   -72.8669 -42.2943 -41.5073 -40.9487 -11.0701 -10.7464 -10.2642 -10.0628
     1.3166   1.6446   2.1038   2.4588   2.8023   3.3601   3.9179   4.1987
     4.3828   4.9283   5.0606   5.5001   6.2441   6.8962   8.1057   9.8492
     9.9128  15.1128

          k = 0.2497-0.3011 0.0529 (  3925 PWs)   bands (ev):

   -72.8669 -42.2943 -41.5073 -40.9488 -11.1802 -10.6412 -10.3051 -10.0108
     1.4815   1.8126   2.1144   2.4663   2.7358   3.1362   3.6953   4.0349
     4.4072   4.9826   5.1394   5.5691   6.2120   6.9883   8.0613   9.6968
    10.1586  14.7251

          k = 0.2497-0.2999 0.2399 (  3913 PWs)   bands (ev):

   -72.8669 -42.2942 -41.5073 -40.9488 -11.3129 -10.4831 -10.3477  -9.9752
     1.4023   1.9338   2.2660   2.5277   2.7027   2.9075   3.5411   3.9516
     4.5220   5.0038   5.1488   5.6246   6.1772   7.1006   7.9665   9.7497
    10.1182  14.5136

          k = 0.2496-0.3035-0.3211 (  3910 PWs)   bands (ev):

   -72.8669 -42.2943 -41.5073 -40.9487 -11.2828 -10.6480 -10.1843  -9.9974
     1.6147   1.7851   1.9115   2.5510   2.8337   3.0901   3.5809   3.8959
     4.1904   5.0981   5.4034   5.6068   6.1553   6.9872   8.0626   9.7643
    10.2452  13.8976

          k = 0.2497-0.3023-0.1341 (  3919 PWs)   bands (ev):

   -72.8668 -42.2943 -41.5073 -40.9487 -11.0655 -10.8754 -10.1595 -10.0291
     1.5700   1.7145   1.9381   2.5619   2.8266   3.1180   3.5544   4.1831
     4.2990   4.8933   5.3731   5.5586   6.2097   6.8884   8.1265   9.9404
    10.0128  14.6346

          k = 0.2497-0.1815-0.0428 (  3912 PWs)   bands (ev):

   -72.8669 -42.2943 -41.5073 -40.9487 -11.2800 -10.6498 -10.1858  -9.9974
     1.6131   1.7874   1.9090   2.5594   2.8355   3.0815   3.5836   3.8988
     4.1913   5.1012   5.3893   5.6125   6.1579   6.9855   8.0622   9.7679
    10.2400  13.8986

          k = 0.2497-0.1803 0.1442 (  3918 PWs)   bands (ev):

   -72.8669 -42.2942 -41.5073 -40.9488 -11.3107 -10.4843 -10.3493  -9.9752
     1.4010   1.9335   2.2680   2.5339   2.7073   2.9004   3.5404   3.9534
     4.5190   4.9997   5.1515   5.6245   6.1778   7.0994   7.9667   9.7496
    10.1186  14.5225

          k = 0.2496-0.1839-0.4169 (  3924 PWs)   bands (ev):

   -72.8669 -42.2943 -41.5073 -40.9488 -11.1809 -10.6424 -10.3039 -10.0097
     1.4831   1.8151   2.1132   2.4687   2.7266   3.1420   3.6866   4.0389
     4.4068   4.9868   5.1404   5.5665   6.2080   6.9881   8.0623   9.6974
    10.1638  14.7153

          k = 0.2497-0.1827-0.2299 (  3912 PWs)   bands (ev):

   -72.8668 -42.2943 -41.5073 -40.9487 -11.0648 -10.8778 -10.1580 -10.0288
     1.5722   1.7121   1.9417   2.5642   2.8219   3.1175   3.5484   4.1862
     4.2999   4.8910   5.3813   5.5540   6.2078   6.8870   8.1284   9.9396
    10.0173  14.6325

          k =-0.4993 0.1237 0.2772 (  3922 PWs)   bands (ev):

   -72.8645 -42.2913 -41.5016 -40.9879 -10.7025 -10.3787 -10.2380 -10.0831
     0.6982   1.2370   1.8566   2.2782   2.6030   3.5515   3.8844   4.3007
     4.5439   4.8484   4.8532   5.3085   6.0040   6.8327   7.9430  10.0376
    10.1604  15.3458

          k =-0.4993 0.1249 0.4642 (  3915 PWs)   bands (ev):

   -72.8645 -42.2912 -41.5016 -40.9879 -10.7452 -10.3986 -10.2221 -10.0426
     0.9074   1.2803   1.9630   2.3770   2.6099   3.4636   3.6888   4.2411
     4.4174   4.5861   4.9493   5.1734   6.0007   7.0028   7.9234   9.8497
    10.1199  15.8583

          k =-0.4993 0.1214-0.0968 (  3934 PWs)   bands (ev):

   -72.8644 -42.2912 -41.5016 -40.9879 -10.7825 -10.4190 -10.2054 -10.0077
     1.1023   1.3857   2.1928   2.4341   2.6792   3.0905   3.4308   4.1947
     4.3432   4.5783   4.8822   5.0853   5.9923   7.1322   7.9084   9.6328
    10.1376  16.0155

          k =-0.4993 0.2433 0.1814 (  3931 PWs)   bands (ev):

   -72.8645 -42.2913 -41.5016 -40.9879 -10.7026 -10.3784 -10.2382 -10.0830
     0.7554   1.1502   1.8569   2.2900   2.5655   3.7248   3.8537   4.2465
     4.5213   4.8205   4.8763   5.3026   6.0031   6.8368   7.9353  10.0579
    10.1299  15.6983

          k =-0.4993 0.2445 0.3685 (  3926 PWs)   bands (ev):

   -72.8645 -42.2912 -41.5016 -40.9879 -10.7465 -10.4017 -10.2179 -10.0421
     0.9015   1.3058   1.9667   2.2325   2.8044   3.3675   3.6973   4.2195
     4.4276   4.5887   4.9721   5.1737   5.9987   7.0082   7.9227   9.8326
    10.1367  15.6509

          k =-0.4993 0.2410-0.1926 (  3912 PWs)   bands (ev):

   -72.8644 -42.2912 -41.5016 -40.9879 -10.7849 -10.4157 -10.2090 -10.0047
     1.1202   1.3556   2.1494   2.5217   2.7141   3.0183   3.4760   4.1571
     4.3002   4.5704   4.8670   5.1418   5.9960   7.1394   7.9079   9.6408
    10.1270  15.9952

          k =-0.4993 0.2422-0.0056 (  3926 PWs)   bands (ev):

   -72.8645 -42.2912 -41.5016 -40.9879 -10.7451 -10.3994 -10.2210 -10.0428
     0.8996   1.3071   1.9604   2.2334   2.8021   3.3726   3.6949   4.2320
     4.4308   4.5863   4.9715   5.1710   5.9995   7.0058   7.9203   9.8354
    10.1373  15.6362

          k =-0.4993-0.1155 0.4687 (  3926 PWs)   bands (ev):

   -72.8645 -42.2913 -41.5016 -40.9879 -10.7029 -10.3766 -10.2407 -10.0817
     0.7009   1.2372   1.8535   2.2655   2.5915   3.5559   3.8993   4.3142
     4.5472   4.8438   4.8559   5.3066   6.0046   6.8323   7.9374  10.0317
    10.1640  15.3348

          k =-0.4993-0.1143 0.6557 (  3915 PWs)   bands (ev):

   -72.8645 -42.2912 -41.5016 -40.9879 -10.7470 -10.3992 -10.2210 -10.0409
     0.9128   1.2790   1.9593   2.3729   2.5994   3.4677   3.6889   4.2522
     4.4114   4.5916   4.9492   5.1755   6.0005   7.0045   7.9209   9.8455
    10.1206  15.8736

          k =-0.4993-0.1178 0.0947 (  3928 PWs)   bands (ev):

   -72.8644 -42.2912 -41.5016 -40.9879 -10.7853 -10.4215 -10.2018 -10.0055
     1.1129   1.3828   2.1875   2.4291   2.6728   3.0894   3.4364   4.1851
     4.3482   4.5777   4.8900   5.0871   5.9913   7.1365   7.9078   9.6239
    10.1381  16.0251

     the Fermi energy is     7.0492 ev

!    total energy              =    -520.61843380 Ry
     total all-electron energy =     -3720.871692 Ry
     estimated scf accuracy    <       0.00000001 Ry
     smearing contrib. (-TS)   =      -0.00519573 Ry
     internal energy E=F+TS    =    -520.61323808 Ry

     The total energy is F=E-TS. E is the sum of the following terms:
     one-electron contribution =    -241.16110979 Ry
     hartree contribution      =     145.69625753 Ry
     xc contribution           =     -61.26672023 Ry
     ewald contribution        =    -185.38326603 Ry
     Hubbard energy            =       0.24553518 Ry
     one-center paw contrib.   =    -178.74393473 Ry

     convergence has been achieved in  15 iterations
     force_hub    :     43.28s CPU      7.24s WALL (       3 calls)
     dndtau       :     38.28s CPU      6.42s WALL (    2268 calls)
     dprojdtau    :      5.45s CPU      0.89s WALL (    2268 calls)
     calc_doverla :     22.12s CPU      3.53s WALL (    2268 calls)
     matel_dSdtau :     28.44s CPU      4.72s WALL (    4536 calls)

     Forces acting on atoms (cartesian axes, Ry/au):

     atom    1 type  1   force =     0.00169035   -0.00954420   -0.00748907
     atom    2 type  1   force =    -0.00007376    0.00647054   -0.01409839
     atom    3 type  3   force =    -0.00031085    0.00602815    0.00872053
     atom    4 type  2   force =    -0.00079069   -0.00626921    0.00616774
     atom    5 type  2   force =     0.00080125    0.00320687    0.00123543
     atom    6 type  2   force =    -0.00033904   -0.00385504   -0.00258169
     atom    7 type  2   force =    -0.00097726    0.00396288    0.00804544

     Total force =     0.026393     Total SCF correction =     0.000158


     Computing stress (Cartesian axis) and pressure

     stres_hub    :    117.83s CPU     18.83s WALL (       3 calls)
     dprojdepsilo :     98.59s CPU     15.72s WALL (     972 calls)
     dprojdeps1   :      9.38s CPU      1.65s WALL (     972 calls)
     dprojdeps2   :     55.39s CPU      8.86s WALL (     972 calls)
     dprojdeps3   :     33.83s CPU      5.21s WALL (     972 calls)
          total   stress  (Ry/bohr**3)                   (kbar)     P=        8.20
   0.00005043  -0.00000248  -0.00000077            7.42       -0.36       -0.11
  -0.00000248   0.00009828   0.00003482           -0.36       14.46        5.12
  -0.00000077   0.00003482   0.00001852           -0.11        5.12        2.72

     Energy error            =      1.4E-03 Ry
     Gradient error          =      1.4E-02 Ry/Bohr
     Cell gradient error     =      1.4E+01 kbar

     number of scf cycles    =   3
     number of bfgs steps    =   2

     enthalpy           old  =    -520.6169880797 Ry
     enthalpy           new  =    -520.6184338006 Ry

     CASE: enthalpy          _new < enthalpy          _old

     new trust radius        =       0.0281108330 bohr
     new conv_thr            =       0.0000001410 Ry

     new unit-cell volume =    486.87651 a.u.^3 (    72.14766 Ang^3 )
     density =      3.85617 g/cm^3

CELL_PARAMETERS (angstrom)
   2.968515149  -0.000178309  -0.000321957
   1.505544996   6.155383629  -0.039742351
   2.970543181   3.151087854   3.927818277

ATOMIC_POSITIONS (angstrom)
Mg               3.4404674955        4.7872322381        1.4698767069
Mg               3.4438966892        1.0761272477        0.3548048352
Mn               4.9317176808        2.3097482938        2.5136720538
O                3.4680184724        6.8587148794        1.7479447783
O                4.9282335475        4.2756418620        2.8592309148
O                3.4475634771        2.7919733016        1.3509521122
O                4.9523013048        8.3243699245        3.8272142028



     Writing config-only to output data dir .\out\\qgan.save\ :
     XML data file
     NEW-OLD atomic charge density approx. for the potential
     New effective cutoffs (rho, wfc):  498.23   62.36

     Check: negative core charge=   -0.000002

     Atomic wfc used for Hubbard projectors are orthogonalized


     total cpu time spent up to now is      206.1 secs

     Self-consistent Calculation

     iteration #  1     ecut=    60.00 Ry     beta= 0.70
     Davidson diagonalization with overlap
     ethr =  1.00E-06,  avg # of iterations = 10.9

     =================== HUBBARD OCCUPATIONS ===================
     ------------------------ ATOM    3 ------------------------
     Tr[ns(  3)] =   5.24187
     eigenvalues:
       0.218  0.315  0.401  0.713  0.974
     eigenvectors (columns):
      -0.546 -0.001  0.203  0.002 -0.813
       0.002 -0.960 -0.001  0.281  0.000
       0.798  0.000  0.422 -0.001 -0.430
      -0.255 -0.001  0.884  0.002  0.392
      -0.003 -0.281  0.001 -0.960 -0.001
     occupation matrix ns (before diag.):
       0.725  0.000  0.280 -0.208 -0.001
       0.000  0.346 -0.000  0.000 -0.107
       0.280 -0.000  0.391 -0.060  0.001
      -0.208  0.000 -0.060  0.477 -0.001
      -0.001 -0.107  0.001 -0.001  0.682

     Number of occupied Hubbard levels =    5.2419

     total cpu time spent up to now is      213.3 secs

     total energy              =    -520.61896708 Ry
     estimated scf accuracy    <       0.00063278 Ry

     iteration #  2     ecut=    60.00 Ry     beta= 0.70
     Davidson diagonalization with overlap
     ethr =  1.47E-06,  avg # of iterations =  4.3

     total cpu time spent up to now is      216.5 secs

     total energy              =    -520.61850449 Ry
     estimated scf accuracy    <       0.00632762 Ry

     iteration #  3     ecut=    60.00 Ry     beta= 0.70
     Davidson diagonalization with overlap
     ethr =  1.47E-06,  avg # of iterations =  3.4

     total cpu time spent up to now is      219.5 secs

     total energy              =    -520.61913017 Ry
     estimated scf accuracy    <       0.00067861 Ry

     iteration #  4     ecut=    60.00 Ry     beta= 0.70
     Davidson diagonalization with overlap
     ethr =  1.47E-06,  avg # of iterations =  1.9

     total cpu time spent up to now is      222.3 secs

     total energy              =    -520.61924530 Ry
     estimated scf accuracy    <       0.00005159 Ry

     iteration #  5     ecut=    60.00 Ry     beta= 0.70
     Davidson diagonalization with overlap
     ethr =  1.20E-07,  avg # of iterations =  5.9

     total cpu time spent up to now is      225.8 secs

     total energy              =    -520.61930221 Ry
     estimated scf accuracy    <       0.00009814 Ry

     iteration #  6     ecut=    60.00 Ry     beta= 0.70
     Davidson diagonalization with overlap
     ethr =  1.20E-07,  avg # of iterations =  1.1

     total cpu time spent up to now is      228.1 secs

     total energy              =    -520.61930121 Ry
     estimated scf accuracy    <       0.00004360 Ry

     iteration #  7     ecut=    60.00 Ry     beta= 0.70
     Davidson diagonalization with overlap
     ethr =  1.01E-07,  avg # of iterations =  1.2

     total cpu time spent up to now is      230.2 secs

     total energy              =    -520.61929900 Ry
     estimated scf accuracy    <       0.00001642 Ry

     iteration #  8     ecut=    60.00 Ry     beta= 0.70
     Davidson diagonalization with overlap
     ethr =  3.82E-08,  avg # of iterations =  2.0

     total cpu time spent up to now is      232.6 secs

     total energy              =    -520.61930172 Ry
     estimated scf accuracy    <       0.00000095 Ry

     iteration #  9     ecut=    60.00 Ry     beta= 0.70
     Davidson diagonalization with overlap
     c_bands:  1 eigenvalues not converged
     c_bands:  2 eigenvalues not converged
     ethr =  2.21E-09,  avg # of iterations = 14.1

     total cpu time spent up to now is      238.3 secs

     total energy              =    -520.61930421 Ry
     estimated scf accuracy    <       0.00000184 Ry

     iteration # 10     ecut=    60.00 Ry     beta= 0.70
     Davidson diagonalization with overlap
     ethr =  2.21E-09,  avg # of iterations =  1.3

     total cpu time spent up to now is      241.1 secs

     total energy              =    -520.61930395 Ry
     estimated scf accuracy    <       0.00000137 Ry

     iteration # 11     ecut=    60.00 Ry     beta= 0.70
     Davidson diagonalization with overlap
     ethr =  2.21E-09,  avg # of iterations =  2.0

     total cpu time spent up to now is      243.8 secs

     total energy              =    -520.61930406 Ry
     estimated scf accuracy    <       0.00000027 Ry

     iteration # 12     ecut=    60.00 Ry     beta= 0.70
     Davidson diagonalization with overlap
     ethr =  6.37E-10,  avg # of iterations =  9.9

     total cpu time spent up to now is      248.9 secs

     total energy              =    -520.61930464 Ry
     estimated scf accuracy    <       0.00000208 Ry

     iteration # 13     ecut=    60.00 Ry     beta= 0.70
     Davidson diagonalization with overlap
     ethr =  6.37E-10,  avg # of iterations =  4.7

     total cpu time spent up to now is      252.2 secs

     total energy              =    -520.61930399 Ry
     estimated scf accuracy    <       0.00000031 Ry

     iteration # 14     ecut=    60.00 Ry     beta= 0.70
     Davidson diagonalization with overlap
     ethr =  6.37E-10,  avg # of iterations =  4.4

     total cpu time spent up to now is      255.4 secs

     total energy              =    -520.61930511 Ry
     estimated scf accuracy    <       0.00000026 Ry

     iteration # 15     ecut=    60.00 Ry     beta= 0.70
     Davidson diagonalization with overlap
     ethr =  6.07E-10,  avg # of iterations =  2.0

     total cpu time spent up to now is      257.8 secs

     total energy              =    -520.61930467 Ry
     estimated scf accuracy    <       0.00000026 Ry

     iteration # 16     ecut=    60.00 Ry     beta= 0.70
     Davidson diagonalization with overlap
     ethr =  5.93E-10,  avg # of iterations =  1.9

     total cpu time spent up to now is      260.1 secs

     End of self-consistent calculation

     =================== HUBBARD OCCUPATIONS ===================
     ------------------------ ATOM    3 ------------------------
     Tr[ns(  3)] =   5.23262
     eigenvalues:
       0.217  0.315  0.400  0.711  0.974
     eigenvectors (columns):
      -0.539 -0.001  0.203  0.003 -0.818
       0.002 -0.961 -0.002  0.276  0.000
       0.802  0.000  0.422 -0.002 -0.424
      -0.259 -0.002  0.884  0.002  0.390
      -0.003 -0.276  0.001 -0.961 -0.001
     occupation matrix ns (before diag.):
       0.730  0.000  0.278 -0.208 -0.001
       0.000  0.345 -0.001  0.000 -0.105
       0.278 -0.001  0.385 -0.057  0.001
      -0.208  0.000 -0.057  0.475 -0.001
      -0.001 -0.105  0.001 -0.001  0.681

     Number of occupied Hubbard levels =    5.2326

          k = 0.0000 0.0000 0.0000 (  3895 PWs)   bands (ev):

   -72.8809 -42.3068 -41.5279 -40.9193 -11.8902 -10.5785 -10.2505 -10.0142
     0.8089   1.5085   2.2027   2.6795   3.0773   3.8868   4.2013   4.3415
     4.6453   5.4530   5.6181   5.7040   6.1103   7.1026   8.0295  10.0983
    10.3951  11.7530

          k = 0.0000 0.0012 0.1873 (  3893 PWs)   bands (ev):

   -72.8809 -42.3069 -41.5280 -40.9193 -11.6946 -10.7229 -10.3294 -10.0547
     0.9940   1.7960   1.9934   3.0691   3.0789   3.8515   4.0543   4.4547
     4.6670   4.9835   5.5660   5.6199   5.8063   7.0611   8.1310   9.8112
    10.4415  12.8612

          k =-0.0000-0.0024-0.3746 (  3894 PWs)   bands (ev):

   -72.8808 -42.3069 -41.5280 -40.9193 -11.3659 -10.9920 -10.4049 -10.1087
     1.2190   1.8570   2.5471   3.0264   3.0737   3.5034   3.8497   4.5452
     4.5789   4.8549   5.4955   5.5314   5.6590   7.0190   8.2036   9.5848
    10.4882  14.4609

          k =-0.0000 0.1195-0.0959 (  3888 PWs)   bands (ev):

   -72.8809 -42.3068 -41.5279 -40.9193 -11.7890 -10.6062 -10.3782 -10.0018
     1.0309   1.5205   2.1820   2.7873   3.1140   3.9111   4.1455   4.2832
     4.7492   5.0327   5.5120   5.6548   6.1065   7.1252   8.0275  10.1593
    10.4403  12.5402

          k = 0.0000 0.1207 0.0914 (  3903 PWs)   bands (ev):

   -72.8809 -42.3069 -41.5279 -40.9193 -11.7328 -10.8069 -10.2260 -10.0102
     0.9505   1.7942   2.0727   2.9006   3.0428   3.8275   3.8889   4.4583
     4.6853   5.2513   5.5996   5.6092   5.8825   7.0979   8.1277   9.8027
    10.3954  12.5162

          k =-0.0000 0.1171-0.4705 (  3923 PWs)   bands (ev):

   -72.8808 -42.3070 -41.5280 -40.9193 -11.3982 -11.0876 -10.3048 -10.0540
     1.2902   1.6428   2.4503   3.0407   3.1636   3.5150   3.8751   4.3777
     4.5630   5.1126   5.4652   5.5165   5.7125   7.0547   8.2276   9.5707
    10.4422  13.8511

          k =-0.0000 0.1183-0.2832 (  3906 PWs)   bands (ev):

   -72.8808 -42.3069 -41.5280 -40.9193 -11.5488 -10.7933 -10.4577 -10.0440
     1.2193   1.7840   2.2318   2.9930   3.1129   3.8290   3.8724   4.4043
     4.5399   4.9433   5.4614   5.5665   5.8055   7.0867   8.1503   9.8897
    10.4862  14.0943

          k = 0.0000-0.2390 0.1918 (  3908 PWs)   bands (ev):

   -72.8809 -42.3068 -41.5280 -40.9193 -11.6617 -10.6851 -10.4773  -9.9918
     1.0224   1.8377   2.4017   2.8253   3.1534   3.6267   3.9416   4.2172
     4.6068   5.0289   5.5048   5.6050   6.1065   7.1481   8.0223  10.2244
    10.4849  13.8318

          k = 0.0000-0.2378 0.3791 (  3905 PWs)   bands (ev):

   -72.8808 -42.3069 -41.5280 -40.9193 -11.5972 -10.8746 -10.3445 -10.0024
     1.3340   1.7586   1.9795   2.9211   3.0748   3.7929   3.9137   4.4069
     4.7828   4.9417   5.4642   5.5560   5.8363   7.1218   8.1587   9.8862
    10.4404  13.4358

          k =-0.0000-0.2415-0.1828 (  3896 PWs)   bands (ev):

   -72.8809 -42.3070 -41.5279 -40.9193 -11.4231 -11.1715 -10.2135 -10.0097
     1.1757   1.7625   2.3247   3.0096   3.0570   3.7059   3.9026   4.1367
     4.5713   5.2334   5.5082   5.5924   5.7765   7.0889   8.1985   9.5405
    10.3962  13.7463

          k = 0.2491-0.0618-0.1388 (  3914 PWs)   bands (ev):

   -72.8781 -42.3040 -41.5224 -40.9577 -11.3380 -10.5932 -10.1855 -10.0125
     1.3859   1.6612   2.1361   2.4214   2.8184   3.0422   3.8278   4.0097
     4.2941   5.0253   5.3430   5.5249   6.1517   6.9775   8.0348   9.7269
    10.1329  13.9487

          k = 0.2491-0.0606 0.0485 (  3892 PWs)   bands (ev):

   -72.8781 -42.3039 -41.5224 -40.9577 -11.4387 -10.4722 -10.2243  -9.9776
     1.4081   1.8097   2.0457   2.4442   2.8487   2.8960   3.7096   3.9752
     4.3155   5.0223   5.4055   5.6009   6.0799   7.0751   7.9627   9.7881
    10.1090  13.6078

          k = 0.2491-0.0642-0.5134 (  3918 PWs)   bands (ev):

   -72.8781 -42.3040 -41.5224 -40.9577 -11.2496 -10.5537 -10.3242 -10.0266
     1.3145   1.6635   2.1993   2.5732   2.7112   3.0174   3.9815   4.0886
     4.4207   4.9811   5.0694   5.4996   6.1957   6.9763   8.0299   9.6707
    10.0545  14.7149

          k = 0.2491-0.0630-0.3261 (  3915 PWs)   bands (ev):

   -72.8781 -42.3040 -41.5224 -40.9577 -11.0668 -10.7621 -10.2769 -10.0654
     1.3121   1.6338   2.1093   2.4571   2.7774   3.3441   3.9118   4.2002
     4.3810   4.9156   5.0377   5.4865   6.2105   6.8955   8.0973   9.8288
     9.8871  15.0955

          k = 0.2491 0.0577-0.2347 (  3915 PWs)   bands (ev):

   -72.8781 -42.3040 -41.5224 -40.9577 -11.2518 -10.5532 -10.3215 -10.0270
     1.3128   1.6655   2.2005   2.5696   2.7116   3.0155   3.9770   4.0862
     4.4252   4.9905   5.0640   5.5005   6.1971   6.9775   8.0295   9.6708
    10.0528  14.7075

          k = 0.2491 0.0589-0.0474 (  3895 PWs)   bands (ev):

   -72.8781 -42.3039 -41.5224 -40.9577 -11.4403 -10.4720 -10.2223  -9.9776
     1.4074   1.8091   2.0468   2.4425   2.8361   2.9083   3.7074   3.9718
     4.3213   5.0152   5.4174   5.6003   6.0762   7.0761   7.9626   9.7874
    10.1100  13.6036

          k = 0.2491 0.0553-0.6093 (  3909 PWs)   bands (ev):

   -72.8781 -42.3040 -41.5224 -40.9577 -11.3378 -10.5914 -10.1871 -10.0130
     1.3838   1.6633   2.1347   2.4195   2.8279   3.0360   3.8279   4.0125
     4.2968   5.0209   5.3392   5.5266   6.1539   6.9789   8.0338   9.7231
    10.1343  13.9561

          k = 0.2491 0.0565-0.4220 (  3913 PWs)   bands (ev):

   -72.8781 -42.3040 -41.5224 -40.9577 -11.0668 -10.7601 -10.2783 -10.0663
     1.3111   1.6339   2.1076   2.4566   2.7786   3.3491   3.9162   4.1973
     4.3768   4.9126   5.0405   5.4878   6.2120   6.8966   8.0952   9.8286
     9.8840  15.0995

          k = 0.2491-0.3009 0.0530 (  3925 PWs)   bands (ev):

   -72.8781 -42.3040 -41.5224 -40.9577 -11.1810 -10.6491 -10.3214 -10.0138
     1.4696   1.8126   2.1186   2.4583   2.7205   3.1271   3.6911   4.0215
     4.4034   4.9597   5.1292   5.5573   6.1811   6.9877   8.0488   9.6723
    10.1352  14.7108

          k = 0.2491-0.2997 0.2403 (  3913 PWs)   bands (ev):

   -72.8781 -42.3039 -41.5224 -40.9578 -11.3147 -10.4872 -10.3676  -9.9776
     1.3902   1.9421   2.2684   2.5207   2.6873   2.8968   3.5355   3.9348
     4.5174   4.9797   5.1382   5.6166   6.1457   7.0982   7.9546   9.7234
    10.0953  14.4942

          k = 0.2491-0.3033-0.3216 (  3910 PWs)   bands (ev):

   -72.8781 -42.3040 -41.5224 -40.9577 -11.2858 -10.6552 -10.1982 -10.0012
     1.6050   1.7827   1.9092   2.5495   2.8243   3.0752   3.5767   3.8831
     4.1781   5.0888   5.3882   5.5930   6.1293   6.9847   8.0501   9.7397
    10.2181  13.8789

          k = 0.2491-0.3021-0.1343 (  3919 PWs)   bands (ev):

   -72.8781 -42.3040 -41.5224 -40.9577 -11.0650 -10.8859 -10.1734 -10.0330
     1.5653   1.7010   1.9413   2.5622   2.8134   3.0988   3.5447   4.1770
     4.2940   4.8832   5.3584   5.5434   6.1820   6.8887   8.1128   9.9220
     9.9809  14.6239

          k = 0.2491-0.1813-0.0429 (  3912 PWs)   bands (ev):

   -72.8781 -42.3040 -41.5224 -40.9577 -11.2833 -10.6567 -10.1999 -10.0011
     1.6041   1.7851   1.9068   2.5575   2.8260   3.0655   3.5789   3.8852
     4.1796   5.0925   5.3754   5.5981   6.1315   6.9834   8.0492   9.7429
    10.2137  13.8798

          k = 0.2491-0.1801 0.1444 (  3918 PWs)   bands (ev):

   -72.8781 -42.3039 -41.5224 -40.9578 -11.3124 -10.4881 -10.3695  -9.9776
     1.3893   1.9415   2.2714   2.5262   2.6905   2.8903   3.5348   3.9364
     4.5152   4.9755   5.1411   5.6164   6.1461   7.0971   7.9548   9.7230
    10.0956  14.5031

          k = 0.2491-0.1838-0.4175 (  3924 PWs)   bands (ev):

   -72.8781 -42.3040 -41.5224 -40.9577 -11.1817 -10.6504 -10.3201 -10.0129
     1.4707   1.8147   2.1168   2.4608   2.7128   3.1331   3.6836   4.0254
     4.4027   4.9637   5.1295   5.5546   6.1774   6.9869   8.0503   9.6728
    10.1397  14.7016

          k = 0.2491-0.1826-0.2302 (  3912 PWs)   bands (ev):

   -72.8781 -42.3040 -41.5224 -40.9577 -11.0645 -10.8881 -10.1719 -10.0325
     1.5671   1.6990   1.9441   2.5644   2.8099   3.0982   3.5389   4.1800
     4.2944   4.8808   5.3664   5.5391   6.1800   6.8873   8.1145   9.9211
     9.9854  14.6220

          k =-0.4982 0.1236 0.2776 (  3922 PWs)   bands (ev):

   -72.8758 -42.3010 -41.5169 -40.9959 -10.7063 -10.4025 -10.2335 -10.0976
     0.6977   1.2269   1.8509   2.2689   2.5928   3.5359   3.8755   4.2803
     4.5338   4.8475   4.8492   5.3128   5.9809   6.8178   7.9353  10.0170
    10.1341  15.3331

          k =-0.4982 0.1249 0.4649 (  3915 PWs)   bands (ev):

   -72.8758 -42.3010 -41.5169 -40.9959 -10.7497 -10.4198 -10.2198 -10.0570
     0.9077   1.2665   1.9625   2.3701   2.5983   3.4512   3.6803   4.2306
     4.4035   4.5774   4.9427   5.1716   5.9776   6.9899   7.9172   9.8305
    10.0897  15.8522

          k =-0.4982 0.1212-0.0970 (  3934 PWs)   bands (ev):

   -72.8757 -42.3010 -41.5169 -40.9959 -10.7874 -10.4387 -10.2043 -10.0221
     1.0991   1.3738   2.1991   2.4283   2.6690   3.0795   3.4212   4.1847
     4.3367   4.5542   4.8838   5.0730   5.9691   7.1206   7.9038   9.6123
    10.1056  16.0291

          k =-0.4982 0.2432 0.1817 (  3931 PWs)   bands (ev):

   -72.8758 -42.3010 -41.5169 -40.9959 -10.7064 -10.4022 -10.2333 -10.0979
     0.7567   1.1375   1.8524   2.2799   2.5564   3.7109   3.8396   4.2253
     4.5179   4.8164   4.8726   5.3065   5.9802   6.8217   7.9278  10.0368
    10.1040  15.6809

          k =-0.4982 0.2444 0.3690 (  3926 PWs)   bands (ev):

   -72.8758 -42.3010 -41.5169 -40.9959 -10.7508 -10.4229 -10.2158 -10.0565
     0.9008   1.2930   1.9657   2.2249   2.7956   3.3549   3.6865   4.2096
     4.4162   4.5780   4.9651   5.1717   5.9757   6.9956   7.9166   9.8139
    10.1061  15.6407

          k =-0.4983 0.2408-0.1929 (  3912 PWs)   bands (ev):

   -72.8757 -42.3010 -41.5169 -40.9959 -10.7897 -10.4355 -10.2082 -10.0188
     1.1164   1.3445   2.1521   2.5229   2.7022   3.0041   3.4685   4.1512
     4.2890   4.5461   4.8677   5.1301   5.9727   7.1278   7.9034   9.6207
    10.0953  16.0007

          k =-0.4982 0.2420-0.0056 (  3926 PWs)   bands (ev):

   -72.8758 -42.3010 -41.5169 -40.9959 -10.7496 -10.4206 -10.2185 -10.0575
     0.8990   1.2939   1.9601   2.2252   2.7938   3.3593   3.6851   4.2205
     4.4208   4.5749   4.9653   5.1687   5.9765   6.9933   7.9144   9.8162
    10.1065  15.6273

          k =-0.4982-0.1154 0.4694 (  3926 PWs)   bands (ev):

   -72.8758 -42.3010 -41.5169 -40.9959 -10.7067 -10.4006 -10.2355 -10.0968
     0.7001   1.2267   1.8477   2.2574   2.5822   3.5399   3.8889   4.2928
     4.5387   4.8406   4.8537   5.3105   5.9815   6.8176   7.9303  10.0118
    10.1369  15.3225

          k =-0.4982-0.1142 0.6567 (  3915 PWs)   bands (ev):

   -72.8758 -42.3010 -41.5169 -40.9959 -10.7514 -10.4203 -10.2189 -10.0553
     0.9126   1.2651   1.9595   2.3664   2.5889   3.4539   3.6810   4.2402
     4.3987   4.5827   4.9429   5.1729   5.9774   6.9918   7.9149   9.8267
    10.0902  15.8676

          k =-0.4982-0.1178 0.0948 (  3928 PWs)   bands (ev):

   -72.8757 -42.3010 -41.5169 -40.9959 -10.7900 -10.4412 -10.2011 -10.0197
     1.1084   1.3718   2.1943   2.4236   2.6638   3.0781   3.4258   4.1770
     4.3395   4.5547   4.8907   5.0739   5.9682   7.1248   7.9032   9.6044
    10.1061  16.0370

     the Fermi energy is     7.0459 ev

!    total energy              =    -520.61930525 Ry
     total all-electron energy =     -3720.872564 Ry
     estimated scf accuracy    <       0.00000004 Ry
     smearing contrib. (-TS)   =      -0.00518042 Ry
     internal energy E=F+TS    =    -520.61412483 Ry

     The total energy is F=E-TS. E is the sum of the following terms:
     one-electron contribution =    -240.78955306 Ry
     hartree contribution      =     145.48916302 Ry
     xc contribution           =     -61.25923615 Ry
     ewald contribution        =    -185.55709411 Ry
     Hubbard energy            =       0.24547394 Ry
     one-center paw contrib.   =    -178.74287848 Ry

     convergence has been achieved in  16 iterations
     force_hub    :     57.83s CPU      9.48s WALL (       4 calls)
     dndtau       :     51.08s CPU      8.36s WALL (    3024 calls)
     dprojdtau    :      7.39s CPU      1.19s WALL (    3024 calls)
     calc_doverla :     28.95s CPU      4.56s WALL (    3024 calls)
     matel_dSdtau :     37.62s CPU      6.14s WALL (    6048 calls)

     Forces acting on atoms (cartesian axes, Ry/au):

     atom    1 type  1   force =     0.00152774   -0.00537015   -0.00668267
     atom    2 type  1   force =    -0.00010692    0.00585458   -0.00752245
     atom    3 type  3   force =    -0.00033938    0.00747628    0.00411244
     atom    4 type  2   force =    -0.00061085   -0.00609903    0.00396741
     atom    5 type  2   force =     0.00058742    0.00241805   -0.00020319
     atom    6 type  2   force =    -0.00019716   -0.00732078   -0.00098221
     atom    7 type  2   force =    -0.00086087    0.00304105    0.00731067

     Total force =     0.020426     Total SCF correction =     0.000182


     Computing stress (Cartesian axis) and pressure

     stres_hub    :    157.77s CPU     24.60s WALL (       4 calls)
     dprojdepsilo :    132.23s CPU     20.48s WALL (    1296 calls)
     dprojdeps1   :     11.84s CPU      2.15s WALL (    1296 calls)
     dprojdeps2   :     75.83s CPU     11.55s WALL (    1296 calls)
     dprojdeps3   :     44.56s CPU      6.76s WALL (    1296 calls)
          total   stress  (Ry/bohr**3)                   (kbar)     P=        4.61
  -0.00000883  -0.00000381   0.00000113           -1.30       -0.56        0.17
  -0.00000381   0.00007699   0.00004116           -0.56       11.33        6.05
   0.00000113   0.00004116   0.00002577            0.17        6.05        3.79

     Energy error            =      8.7E-04 Ry
     Gradient error          =      7.5E-03 Ry/Bohr
     Cell gradient error     =      1.1E+01 kbar

     number of scf cycles    =   4
     number of bfgs steps    =   3

     enthalpy           old  =    -520.6184338006 Ry
     enthalpy           new  =    -520.6193052538 Ry

     CASE: enthalpy          _new < enthalpy          _old

     new trust radius        =       0.0421228313 bohr
     new conv_thr            =       0.0000000752 Ry

     new unit-cell volume =    487.67974 a.u.^3 (    72.26668 Ang^3 )
     density =      3.84982 g/cm^3

CELL_PARAMETERS (angstrom)
   2.972311838  -0.000860815  -0.000261153
   1.506002604   6.166127604  -0.034075459
   2.973663128   3.159832313   3.925102661

ATOMIC_POSITIONS (angstrom)
Mg               3.4468760285        4.7816957109        1.4588128427
Mg               3.4479494744        1.0892988035        0.3363926809
Mn               4.9368905213        2.3139880195        2.5197916543
O                3.4694049081        6.8713850973        1.7655724951
O                4.9349758180        4.2873581874        2.8587057455
O                3.4507187893        2.7915810532        1.3508938757
O                4.9549836504        8.3503415671        3.8414328301



     Writing config-only to output data dir .\out\\qgan.save\ :
     XML data file
     NEW-OLD atomic charge density approx. for the potential
     New effective cutoffs (rho, wfc):  497.05   62.23

     Check: negative core charge=   -0.000002

     Atomic wfc used for Hubbard projectors are orthogonalized


     total cpu time spent up to now is      271.1 secs

     Self-consistent Calculation

     iteration #  1     ecut=    60.00 Ry     beta= 0.70
     Davidson diagonalization with overlap
     c_bands:  1 eigenvalues not converged
     ethr =  1.00E-06,  avg # of iterations = 12.0

     =================== HUBBARD OCCUPATIONS ===================
     ------------------------ ATOM    3 ------------------------
     Tr[ns(  3)] =   5.24321
     eigenvalues:
       0.220  0.313  0.400  0.715  0.975
     eigenvectors (columns):
      -0.539 -0.001  0.202  0.003 -0.817
       0.002 -0.962 -0.002  0.272  0.000
       0.801 -0.000  0.424 -0.002 -0.424
      -0.261 -0.002  0.883  0.001  0.390
      -0.003 -0.272  0.000 -0.962 -0.001
     occupation matrix ns (before diag.):
       0.732  0.000  0.277 -0.209 -0.001
       0.000  0.342 -0.001  0.000 -0.105
       0.277 -0.001  0.388 -0.057  0.001
      -0.209  0.000 -0.057  0.475 -0.001
      -0.001 -0.105  0.001 -0.001  0.685

     Number of occupied Hubbard levels =    5.2432

     total cpu time spent up to now is      277.7 secs

     total energy              =    -520.61967734 Ry
     estimated scf accuracy    <       0.00095188 Ry

     iteration #  2     ecut=    60.00 Ry     beta= 0.70
     Davidson diagonalization with overlap
     ethr =  2.21E-06,  avg # of iterations =  4.5

     total cpu time spent up to now is      280.7 secs

     total energy              =    -520.61904025 Ry
     estimated scf accuracy    <       0.00825771 Ry

     iteration #  3     ecut=    60.00 Ry     beta= 0.70
     Davidson diagonalization with overlap
     ethr =  2.21E-06,  avg # of iterations =  3.7

     total cpu time spent up to now is      283.3 secs

     total energy              =    -520.61988292 Ry
     estimated scf accuracy    <       0.00108642 Ry

     iteration #  4     ecut=    60.00 Ry     beta= 0.70
     Davidson diagonalization with overlap
     ethr =  2.21E-06,  avg # of iterations =  2.0

     total cpu time spent up to now is      285.7 secs

     total energy              =    -520.62007420 Ry
     estimated scf accuracy    <       0.00011752 Ry

     iteration #  5     ecut=    60.00 Ry     beta= 0.70
     Davidson diagonalization with overlap
     ethr =  2.73E-07,  avg # of iterations =  5.1

     total cpu time spent up to now is      288.9 secs

     total energy              =    -520.62015110 Ry
     estimated scf accuracy    <       0.00010736 Ry

     iteration #  6     ecut=    60.00 Ry     beta= 0.70
     Davidson diagonalization with overlap
     ethr =  2.50E-07,  avg # of iterations =  1.1

     total cpu time spent up to now is      291.2 secs

     total energy              =    -520.62015136 Ry
     estimated scf accuracy    <       0.00004422 Ry

     iteration #  7     ecut=    60.00 Ry     beta= 0.70
     Davidson diagonalization with overlap
     ethr =  1.03E-07,  avg # of iterations =  1.9

     total cpu time spent up to now is      293.7 secs

     total energy              =    -520.62015077 Ry
     estimated scf accuracy    <       0.00001449 Ry

     iteration #  8     ecut=    60.00 Ry     beta= 0.70
     Davidson diagonalization with overlap
     ethr =  3.37E-08,  avg # of iterations =  2.3

     total cpu time spent up to now is      296.4 secs

     total energy              =    -520.62015348 Ry
     estimated scf accuracy    <       0.00000108 Ry

     iteration #  9     ecut=    60.00 Ry     beta= 0.70
     Davidson diagonalization with overlap
     c_bands:  2 eigenvalues not converged
     c_bands:  5 eigenvalues not converged
     c_bands:  1 eigenvalues not converged
     ethr =  2.52E-09,  avg # of iterations = 14.9

     total cpu time spent up to now is      302.8 secs

     total energy              =    -520.62015709 Ry
     estimated scf accuracy    <       0.00000135 Ry

     iteration # 10     ecut=    60.00 Ry     beta= 0.70
     Davidson diagonalization with overlap
     ethr =  2.52E-09,  avg # of iterations =  1.6

     total cpu time spent up to now is      305.3 secs

     total energy              =    -520.62015696 Ry
     estimated scf accuracy    <       0.00000071 Ry

     iteration # 11     ecut=    60.00 Ry     beta= 0.70
     Davidson diagonalization with overlap
     ethr =  1.66E-09,  avg # of iterations =  5.3

     total cpu time spent up to now is      309.6 secs

     total energy              =    -520.62015743 Ry
     estimated scf accuracy    <       0.00000033 Ry

     iteration # 12     ecut=    60.00 Ry     beta= 0.70
     Davidson diagonalization with overlap
     ethr =  7.75E-10,  avg # of iterations =  3.2

     total cpu time spent up to now is      312.5 secs

     total energy              =    -520.62015725 Ry
     estimated scf accuracy    <       0.00000017 Ry

     iteration # 13     ecut=    60.00 Ry     beta= 0.70
     Davidson diagonalization with overlap
     c_bands:  2 eigenvalues not converged
     ethr =  3.92E-10,  avg # of iterations = 11.3

     total cpu time spent up to now is      317.4 secs

     total energy              =    -520.62015738 Ry
     estimated scf accuracy    <       0.00000058 Ry

     iteration # 14     ecut=    60.00 Ry     beta= 0.70
     Davidson diagonalization with overlap
     ethr =  3.92E-10,  avg # of iterations =  6.3

     total cpu time spent up to now is      321.0 secs

     End of self-consistent calculation

     =================== HUBBARD OCCUPATIONS ===================
     ------------------------ ATOM    3 ------------------------
     Tr[ns(  3)] =   5.23439
     eigenvalues:
       0.218  0.313  0.399  0.713  0.974
     eigenvectors (columns):
      -0.535 -0.001  0.202  0.003 -0.821
       0.002 -0.963 -0.003  0.268 -0.000
       0.803 -0.000  0.423 -0.003 -0.420
      -0.262 -0.003  0.884  0.001  0.388
      -0.004 -0.268 -0.001 -0.963 -0.001
     occupation matrix ns (before diag.):
       0.735  0.000  0.276 -0.209 -0.001
       0.000  0.342 -0.001 -0.000 -0.103
       0.276 -0.001  0.384 -0.056  0.002
      -0.209 -0.000 -0.056  0.473 -0.001
      -0.001 -0.103  0.002 -0.001  0.684

     Number of occupied Hubbard levels =    5.2344

          k = 0.0000 0.0000 0.0000 (  3895 PWs)   bands (ev):

   -72.8975 -42.3196 -41.5470 -40.9367 -11.8863 -10.5629 -10.2777 -10.0403
     0.8122   1.5060   2.2240   2.6734   3.0650   3.8815   4.1699   4.3314
     4.6363   5.4257   5.5997   5.6544   6.0741   7.0980   8.0036  10.0635
    10.3498  11.7232

          k = 0.0000 0.0010 0.1876 (  3893 PWs)   bands (ev):

   -72.8974 -42.3196 -41.5470 -40.9367 -11.6884 -10.7140 -10.3554 -10.0771
     1.0025   1.7960   1.9921   3.0663   3.0697   3.8445   4.0423   4.4451
     4.6495   4.9568   5.5515   5.5729   5.7670   7.0560   8.1039   9.7760
    10.3945  12.8353

          k =-0.0000-0.0021-0.3751 (  3894 PWs)   bands (ev):

   -72.8974 -42.3197 -41.5471 -40.9367 -11.3510 -10.9941 -10.4308 -10.1283
     1.2429   1.8423   2.5396   3.0180   3.0621   3.4936   3.8416   4.5356
     4.5649   4.8435   5.4736   5.4874   5.6216   7.0131   8.1793   9.5449
    10.4397  14.4359

          k = 0.0000 0.1194-0.0961 (  3888 PWs)   bands (ev):

   -72.8975 -42.3196 -41.5470 -40.9367 -11.7827 -10.5914 -10.4083 -10.0262
     1.0336   1.5220   2.1898   2.7839   3.1017   3.9037   4.1373   4.2756
     4.7239   5.0138   5.4855   5.6058   6.0726   7.1206   7.9991  10.1248
    10.3936  12.5126

          k = 0.0000 0.1204 0.0914 (  3903 PWs)   bands (ev):

   -72.8975 -42.3196 -41.5470 -40.9367 -11.7306 -10.7951 -10.2532 -10.0302
     0.9497   1.7983   2.0883   2.8914   3.0310   3.8171   3.8828   4.4489
     4.6641   5.2238   5.5596   5.5798   5.8444   7.0926   8.1007   9.7723
    10.3498  12.4878

          k =-0.0000 0.1173-0.4713 (  3923 PWs)   bands (ev):

   -72.8974 -42.3197 -41.5470 -40.9367 -11.3958 -11.0772 -10.3331 -10.0712
     1.2981   1.6467   2.4481   3.0292   3.1522   3.5118   3.8678   4.3566
     4.5539   5.0963   5.4405   5.4698   5.6744   7.0488   8.2008   9.5386
    10.3951  13.8323

          k = 0.0000 0.1184-0.2837 (  3906 PWs)   bands (ev):

   -72.8974 -42.3196 -41.5471 -40.9367 -11.5378 -10.7914 -10.4820 -10.0658
     1.2269   1.7881   2.2312   2.9771   3.1010   3.8264   3.8636   4.3971
     4.5254   4.9221   5.4388   5.5199   5.7695   7.0815   8.1228   9.8539
    10.4379  14.0724

          k =-0.0001-0.2388 0.1923 (  3908 PWs)   bands (ev):

   -72.8974 -42.3196 -41.5471 -40.9367 -11.6514 -10.6853 -10.4974 -10.0151
     1.0197   1.8549   2.4010   2.8193   3.1412   3.6099   3.9304   4.2138
     4.5967   5.0053   5.4784   5.5564   6.0739   7.1434   7.9921  10.1902
    10.4367  13.8119

          k =-0.0000-0.2378 0.3798 (  3905 PWs)   bands (ev):

   -72.8974 -42.3196 -41.5470 -40.9367 -11.5929 -10.8643 -10.3724 -10.0222
     1.3340   1.7569   1.9937   2.9122   3.0630   3.7931   3.9060   4.3998
     4.7544   4.9200   5.4374   5.5074   5.8034   7.1164   8.1307   9.8549
    10.3935  13.4096

          k =-0.0001-0.2409-0.1829 (  3896 PWs)   bands (ev):

   -72.8975 -42.3197 -41.5470 -40.9367 -11.4330 -11.1500 -10.2420 -10.0255
     1.1638   1.7941   2.3245   2.9983   3.0416   3.7014   3.8961   4.1185
     4.5628   5.2095   5.4592   5.5696   5.7313   7.0830   8.1702   9.5154
    10.3504  13.7349

          k = 0.2488-0.0615-0.1389 (  3914 PWs)   bands (ev):

   -72.8947 -42.3167 -41.5416 -40.9745 -11.3324 -10.5892 -10.2073 -10.0377
     1.3911   1.6599   2.1332   2.4245   2.8040   3.0189   3.8131   4.0064
     4.2753   5.0204   5.3101   5.5013   6.1177   6.9615   8.0120   9.6883
    10.0952  13.9279

          k = 0.2488-0.0605 0.0486 (  3892 PWs)   bands (ev):

   -72.8947 -42.3167 -41.5416 -40.9745 -11.4330 -10.4644 -10.2482 -10.0050
     1.4114   1.8138   2.0382   2.4491   2.8275   2.8844   3.7025   3.9525
     4.3062   5.0117   5.3838   5.5704   6.0458   7.0558   7.9416   9.7510
    10.0693  13.5832

          k = 0.2487-0.0636-0.5141 (  3918 PWs)   bands (ev):

   -72.8947 -42.3167 -41.5416 -40.9745 -11.2377 -10.5563 -10.3449 -10.0526
     1.3143   1.6674   2.2027   2.5652   2.6869   3.0080   3.9713   4.0902
     4.4096   4.9446   5.0564   5.4740   6.1578   6.9584   8.0079   9.6349
    10.0195  14.6968

          k = 0.2488-0.0626-0.3265 (  3915 PWs)   bands (ev):

   -72.8947 -42.3168 -41.5416 -40.9745 -11.0469 -10.7738 -10.2988 -10.0890
     1.3170   1.6351   2.1059   2.4496   2.7436   3.3526   3.9018   4.1918
     4.3763   4.8874   5.0111   5.4621   6.1736   6.8794   8.0748   9.7938
     9.8523  15.0891

          k = 0.2488 0.0579-0.2351 (  3915 PWs)   bands (ev):

   -72.8947 -42.3167 -41.5416 -40.9745 -11.2401 -10.5554 -10.3426 -10.0529
     1.3130   1.6695   2.2038   2.5615   2.6876   3.0051   3.9683   4.0871
     4.4128   4.9523   5.0527   5.4755   6.1590   6.9603   8.0068   9.6360
    10.0182  14.6897

          k = 0.2488 0.0589-0.0475 (  3895 PWs)   bands (ev):

   -72.8947 -42.3167 -41.5416 -40.9745 -11.4345 -10.4643 -10.2462 -10.0050
     1.4106   1.8134   2.0385   2.4478   2.8196   2.8930   3.7007   3.9497
     4.3103   5.0055   5.3936   5.5703   6.0429   7.0567   7.9416   9.7507
    10.0702  13.5791

          k = 0.2488 0.0558-0.6102 (  3909 PWs)   bands (ev):

   -72.8947 -42.3167 -41.5416 -40.9745 -11.3319 -10.5879 -10.2086 -10.0384
     1.3892   1.6616   2.1323   2.4217   2.8125   3.0147   3.8132   4.0093
     4.2784   5.0155   5.3062   5.5029   6.1197   6.9624   8.0119   9.6843
    10.0959  13.9348

          k = 0.2488 0.0568-0.4226 (  3913 PWs)   bands (ev):

   -72.8947 -42.3168 -41.5416 -40.9745 -11.0465 -10.7722 -10.3000 -10.0899
     1.3166   1.6347   2.1052   2.4488   2.7442   3.3567   3.9058   4.1899
     4.3717   4.8845   5.0141   5.4634   6.1748   6.8804   8.0731   9.7936
     9.8494  15.0929

          k = 0.2487-0.3003 0.0533 (  3925 PWs)   bands (ev):

   -72.8947 -42.3167 -41.5416 -40.9745 -11.1685 -10.6520 -10.3441 -10.0380
     1.4646   1.8225   2.1187   2.4562   2.6933   3.1195   3.6865   4.0134
     4.3913   4.9196   5.1172   5.5326   6.1450   6.9708   8.0249   9.6412
    10.1002  14.6983

          k = 0.2487-0.2993 0.2409 (  3913 PWs)   bands (ev):

   -72.8947 -42.3167 -41.5416 -40.9745 -11.3041 -10.4814 -10.3955 -10.0038
     1.3832   1.9603   2.2650   2.5086   2.6724   2.8911   3.5333   3.9153
     4.5045   4.9369   5.1372   5.5897   6.1088   7.0793   7.9319   9.6908
    10.0602  14.4769

          k = 0.2487-0.3024-0.3218 (  3910 PWs)   bands (ev):

   -72.8947 -42.3167 -41.5416 -40.9745 -11.2807 -10.6500 -10.2221 -10.0250
     1.6019   1.7793   1.9177   2.5589   2.8026   3.0605   3.5589   3.8781
     4.1555   5.0759   5.3616   5.5672   6.0981   6.9682   8.0269   9.7048
    10.1792  13.8589

          k = 0.2487-0.3014-0.1342 (  3919 PWs)   bands (ev):

   -72.8947 -42.3168 -41.5416 -40.9745 -11.0587 -10.8839 -10.1978 -10.0538
     1.5619   1.6991   1.9559   2.5613   2.7847   3.0925   3.5223   4.1662
     4.2822   4.8691   5.3277   5.5238   6.1488   6.8744   8.0887   9.8887
     9.9419  14.6181

          k = 0.2487-0.1809-0.0428 (  3912 PWs)   bands (ev):

   -72.8947 -42.3167 -41.5416 -40.9745 -11.2786 -10.6511 -10.2238 -10.0247
     1.6023   1.7812   1.9155   2.5665   2.8029   3.0507   3.5602   3.8790
     4.1577   5.0802   5.3511   5.5715   6.0999   6.9674   8.0254   9.7079
    10.1758  13.8597

          k = 0.2488-0.1799 0.1448 (  3918 PWs)   bands (ev):

   -72.8947 -42.3167 -41.5416 -40.9745 -11.3020 -10.4822 -10.3973 -10.0037
     1.3825   1.9593   2.2690   2.5138   2.6726   2.8865   3.5322   3.9167
     4.5033   4.9329   5.1404   5.5893   6.1091   7.0782   7.9320   9.6902
    10.0604  14.4853

          k = 0.2487-0.1830-0.4179 (  3924 PWs)   bands (ev):

   -72.8947 -42.3167 -41.5416 -40.9745 -11.1690 -10.6533 -10.3428 -10.0373
     1.4648   1.8242   2.1164   2.4591   2.6877   3.1255   3.6804   4.0174
     4.3903   4.9231   5.1164   5.5297   6.1418   6.9693   8.0270   9.6411
    10.1040  14.6904

          k = 0.2487-0.1820-0.2304 (  3912 PWs)   bands (ev):

   -72.8947 -42.3168 -41.5416 -40.9745 -11.0587 -10.8855 -10.1965 -10.0533
     1.5632   1.6972   1.9581   2.5633   2.7832   3.0916   3.5172   4.1687
     4.2823   4.8667   5.3346   5.5205   6.1470   6.8732   8.0901   9.8880
     9.9458  14.6166

          k =-0.4975 0.1231 0.2779 (  3922 PWs)   bands (ev):

   -72.8925 -42.3138 -41.5362 -41.0119 -10.6683 -10.4356 -10.2496 -10.1283
     0.6992   1.2125   1.8470   2.2701   2.5881   3.5193   3.8779   4.2583
     4.5215   4.8112   4.8233   5.3155   5.9557   6.7903   7.9153   9.9832
    10.0971  15.3149

          k =-0.4975 0.1241 0.4654 (  3915 PWs)   bands (ev):

   -72.8925 -42.3138 -41.5362 -41.0119 -10.7156 -10.4507 -10.2371 -10.0850
     0.9096   1.2454   1.9677   2.3682   2.5973   3.4387   3.6768   4.2147
     4.3840   4.5451   4.9234   5.1626   5.9521   6.9635   7.8990   9.7934
    10.0558  15.8436

          k =-0.4976 0.1210-0.0973 (  3934 PWs)   bands (ev):

   -72.8924 -42.3138 -41.5362 -41.0120 -10.7552 -10.4689 -10.2219 -10.0486
     1.0917   1.3595   2.2107   2.4286   2.6621   3.0823   3.4071   4.1590
     4.3261   4.5120   4.8825   5.0524   5.9431   7.0949   7.8872   9.5755
    10.0702  16.0556

          k =-0.4975 0.2425 0.1817 (  3931 PWs)   bands (ev):

   -72.8925 -42.3138 -41.5362 -41.0119 -10.6684 -10.4354 -10.2491 -10.1289
     0.7613   1.1195   1.8518   2.2709   2.5622   3.6837   3.8489   4.1984
     4.5127   4.7862   4.8401   5.3083   5.9549   6.7940   7.9082  10.0008
    10.0691  15.6522

          k =-0.4975 0.2435 0.3693 (  3926 PWs)   bands (ev):

   -72.8925 -42.3138 -41.5362 -41.0119 -10.7163 -10.4542 -10.2329 -10.0847
     0.8991   1.2770   1.9679   2.2239   2.7970   3.3460   3.6781   4.1927
     4.3979   4.5447   4.9441   5.1644   5.9501   6.9694   7.8984   9.7787
    10.0709  15.6280

          k =-0.4976 0.2404-0.1934 (  3912 PWs)   bands (ev):

   -72.8924 -42.3138 -41.5362 -41.0119 -10.7579 -10.4649 -10.2267 -10.0449
     1.1088   1.3287   2.1685   2.5208   2.6972   2.9977   3.4638   4.1345
     4.2644   4.5051   4.8659   5.1105   5.9466   7.1019   7.8869   9.5840
    10.0610  16.0150

          k =-0.4975 0.2414-0.0058 (  3926 PWs)   bands (ev):

   -72.8925 -42.3138 -41.5362 -41.0119 -10.7151 -10.4520 -10.2352 -10.0859
     0.8977   1.2774   1.9631   2.2232   2.7960   3.3489   3.6782   4.2007
     4.4039   4.5416   4.9449   5.1612   5.9509   6.9673   7.8967   9.7803
    10.0711  15.6174

          k =-0.4976-0.1157 0.4702 (  3926 PWs)   bands (ev):

   -72.8925 -42.3138 -41.5362 -41.0119 -10.6687 -10.4338 -10.2510 -10.1280
     0.7011   1.2122   1.8437   2.2605   2.5792   3.5220   3.8900   4.2682
     4.5285   4.8068   4.8250   5.3128   5.9562   6.7901   7.9113   9.9790
    10.0989  15.3058

          k =-0.4976-0.1147 0.6577 (  3915 PWs)   bands (ev):

   -72.8925 -42.3138 -41.5362 -41.0119 -10.7171 -10.4512 -10.2364 -10.0833
     0.9135   1.2440   1.9659   2.3651   2.5892   3.4397   3.6782   4.2213
     4.3809   4.5504   4.9239   5.1629   5.9519   6.9655   7.8970   9.7904
    10.0561  15.8565

          k =-0.4976-0.1178 0.0950 (  3928 PWs)   bands (ev):

   -72.8924 -42.3138 -41.5362 -41.0119 -10.7577 -10.4714 -10.2192 -10.0462
     1.0985   1.3588   2.2078   2.4241   2.6580   3.0812   3.4098   4.1545
     4.3263   4.5132   4.8881   5.0523   5.9422   7.0988   7.8866   9.5694
    10.0707  16.0601

     the Fermi energy is     7.0294 ev

!    total energy              =    -520.62015802 Ry
     total all-electron energy =     -3720.873416 Ry
     estimated scf accuracy    <       0.00000007 Ry
     smearing contrib. (-TS)   =      -0.00510818 Ry
     internal energy E=F+TS    =    -520.61504985 Ry

     The total energy is F=E-TS. E is the sum of the following terms:
     one-electron contribution =    -240.29940760 Ry
     hartree contribution      =     145.21714089 Ry
     xc contribution           =     -61.24917773 Ry
     ewald contribution        =    -185.78706675 Ry
     Hubbard energy            =       0.24506194 Ry
     one-center paw contrib.   =    -178.74160060 Ry

     convergence has been achieved in  14 iterations
     force_hub    :     72.03s CPU     11.73s WALL (       5 calls)
     dndtau       :     64.17s CPU     10.35s WALL (    3780 calls)
     dprojdtau    :      8.98s CPU      1.49s WALL (    3780 calls)
     calc_doverla :     36.09s CPU      5.62s WALL (    3780 calls)
     matel_dSdtau :     47.53s CPU      7.56s WALL (    7560 calls)

     Forces acting on atoms (cartesian axes, Ry/au):

     atom    1 type  1   force =     0.00126660    0.00002698   -0.00529618
     atom    2 type  1   force =    -0.00003399    0.00338385    0.00154773
     atom    3 type  3   force =    -0.00038670    0.00197510   -0.00211080
     atom    4 type  2   force =    -0.00043277   -0.00107262    0.00329878
     atom    5 type  2   force =     0.00024655    0.00049079   -0.00325541
     atom    6 type  2   force =     0.00001956   -0.00682760    0.00082139
     atom    7 type  2   force =    -0.00067925    0.00202349    0.00499450

     Total force =     0.012326     Total SCF correction =     0.000112


     Computing stress (Cartesian axis) and pressure

     stres_hub    :    197.92s CPU     30.55s WALL (       5 calls)
     dprojdepsilo :    164.70s CPU     25.39s WALL (    1620 calls)
     dprojdeps1   :     15.12s CPU      2.68s WALL (    1620 calls)
     dprojdeps2   :     95.58s CPU     14.34s WALL (    1620 calls)
     dprojdeps3   :     54.00s CPU      8.36s WALL (    1620 calls)
          total   stress  (Ry/bohr**3)                   (kbar)     P=        0.09
  -0.00005097  -0.00000458   0.00000358           -7.50       -0.67        0.53
  -0.00000458   0.00002231   0.00002411           -0.67        3.28        3.55
   0.00000358   0.00002411   0.00003042            0.53        3.55        4.47

     Energy error            =      8.5E-04 Ry
     Gradient error          =      6.8E-03 Ry/Bohr
     Cell gradient error     =      7.5E+00 kbar

     number of scf cycles    =   5
     number of bfgs steps    =   4

     enthalpy           old  =    -520.6193052538 Ry
     enthalpy           new  =    -520.6201580238 Ry

     CASE: enthalpy          _new < enthalpy          _old

     new trust radius        =       0.0261393759 bohr
     new conv_thr            =       0.0000000683 Ry

     new unit-cell volume =    487.97268 a.u.^3 (    72.31009 Ang^3 )
     density =      3.84750 g/cm^3

CELL_PARAMETERS (angstrom)
   2.970408096  -0.001632437   0.000099394
   1.503377775   6.173398574  -0.027815368
   2.971390853   3.166955692   3.928558959

ATOMIC_POSITIONS (angstrom)
Mg               3.4461436823        4.7800141332        1.4530948632
Mg               3.4454246438        1.0985548695        0.3284958692
Mn               4.9328042111        2.3170931059        2.5252279301
O                3.4644486824        6.8809874476        1.7830968083
O                4.9319535860        4.2957460388        2.8609642466
O                3.4476018291        2.7886560573        1.3542786366
O                4.9486208283        8.3694441487        3.8599007391



     Writing config-only to output data dir .\out\\qgan.save\ :
     XML data file
     NEW-OLD atomic charge density approx. for the potential
     New effective cutoffs (rho, wfc):  496.20   62.09

     Check: negative core charge=   -0.000002

     Atomic wfc used for Hubbard projectors are orthogonalized


     total cpu time spent up to now is      332.2 secs

     Self-consistent Calculation

     iteration #  1     ecut=    60.00 Ry     beta= 0.70
     Davidson diagonalization with overlap
     ethr =  1.00E-06,  avg # of iterations =  9.2

     =================== HUBBARD OCCUPATIONS ===================
     ------------------------ ATOM    3 ------------------------
     Tr[ns(  3)] =   5.24078
     eigenvalues:
       0.220  0.312  0.399  0.715  0.975
     eigenvectors (columns):
      -0.535 -0.001  0.202  0.003 -0.820
       0.002 -0.964 -0.003  0.266 -0.000
       0.803 -0.001  0.423 -0.003 -0.420
      -0.262 -0.003  0.883  0.001  0.389
      -0.004 -0.266 -0.001 -0.964 -0.001
     occupation matrix ns (before diag.):
       0.735  0.001  0.276 -0.209 -0.001
       0.001  0.340 -0.001 -0.000 -0.103
       0.276 -0.001  0.385 -0.056  0.002
      -0.209 -0.000 -0.056  0.474 -0.001
      -0.001 -0.103  0.002 -0.001  0.686

     Number of occupied Hubbard levels =    5.2408

     total cpu time spent up to now is      338.2 secs

     total energy              =    -520.62029567 Ry
     estimated scf accuracy    <       0.00036126 Ry

     iteration #  2     ecut=    60.00 Ry     beta= 0.70
     Davidson diagonalization with overlap
     ethr =  8.40E-07,  avg # of iterations =  4.2

     total cpu time spent up to now is      341.4 secs

     total energy              =    -520.62004107 Ry
     estimated scf accuracy    <       0.00328587 Ry

     iteration #  3     ecut=    60.00 Ry     beta= 0.70
     Davidson diagonalization with overlap
     ethr =  8.40E-07,  avg # of iterations =  3.5

     total cpu time spent up to now is      344.0 secs

     total energy              =    -520.62037586 Ry
     estimated scf accuracy    <       0.00043844 Ry

     iteration #  4     ecut=    60.00 Ry     beta= 0.70
     Davidson diagonalization with overlap
     ethr =  8.40E-07,  avg # of iterations =  2.0

     total cpu time spent up to now is      346.3 secs

     total energy              =    -520.62045278 Ry
     estimated scf accuracy    <       0.00004564 Ry

     iteration #  5     ecut=    60.00 Ry     beta= 0.70
     Davidson diagonalization with overlap
     ethr =  1.06E-07,  avg # of iterations =  5.1

     total cpu time spent up to now is      349.4 secs

     total energy              =    -520.62048102 Ry
     estimated scf accuracy    <       0.00003370 Ry

     iteration #  6     ecut=    60.00 Ry     beta= 0.70
     Davidson diagonalization with overlap
     ethr =  7.84E-08,  avg # of iterations =  1.2

     total cpu time spent up to now is      351.7 secs

     total energy              =    -520.62048131 Ry
     estimated scf accuracy    <       0.00001318 Ry

     iteration #  7     ecut=    60.00 Ry     beta= 0.70
     Davidson diagonalization with overlap
     ethr =  3.07E-08,  avg # of iterations =  2.0

     total cpu time spent up to now is      354.4 secs

     total energy              =    -520.62048132 Ry
     estimated scf accuracy    <       0.00000443 Ry

     iteration #  8     ecut=    60.00 Ry     beta= 0.70
     Davidson diagonalization with overlap
     ethr =  1.03E-08,  avg # of iterations =  2.2

     total cpu time spent up to now is      357.1 secs

     total energy              =    -520.62048195 Ry
     estimated scf accuracy    <       0.00000039 Ry

     iteration #  9     ecut=    60.00 Ry     beta= 0.70
     Davidson diagonalization with overlap
     c_bands:  5 eigenvalues not converged
     c_bands:  3 eigenvalues not converged
     c_bands:  3 eigenvalues not converged
     ethr =  9.15E-10,  avg # of iterations = 14.8

     total cpu time spent up to now is      363.0 secs

     total energy              =    -520.62048296 Ry
     estimated scf accuracy    <       0.00000026 Ry

     iteration # 10     ecut=    60.00 Ry     beta= 0.70
     Davidson diagonalization with overlap
     ethr =  5.98E-10,  avg # of iterations =  2.5

     total cpu time spent up to now is      365.6 secs

     total energy              =    -520.62048295 Ry
     estimated scf accuracy    <       0.00000012 Ry

     iteration # 11     ecut=    60.00 Ry     beta= 0.70
     Davidson diagonalization with overlap
     ethr =  2.78E-10,  avg # of iterations =  8.1

     total cpu time spent up to now is      369.4 secs

     End of self-consistent calculation

     =================== HUBBARD OCCUPATIONS ===================
     ------------------------ ATOM    3 ------------------------
     Tr[ns(  3)] =   5.23569
     eigenvalues:
       0.219  0.312  0.399  0.714  0.975
     eigenvectors (columns):
      -0.535 -0.000  0.202  0.003 -0.820
       0.002 -0.964 -0.003  0.265 -0.001
       0.803 -0.001  0.423 -0.003 -0.420
      -0.262 -0.003  0.883  0.001  0.389
      -0.004 -0.265 -0.001 -0.964 -0.001
     occupation matrix ns (before diag.):
       0.735  0.001  0.276 -0.209 -0.001
       0.001  0.340 -0.000 -0.000 -0.103
       0.276 -0.000  0.384 -0.056  0.002
      -0.209 -0.000 -0.056  0.473 -0.001
      -0.001 -0.103  0.002 -0.001  0.685

     Number of occupied Hubbard levels =    5.2357

          k = 0.0000 0.0000 0.0000 (  3895 PWs)   bands (ev):

   -72.9009 -42.3231 -41.5505 -40.9402 -11.8838 -10.5543 -10.2859 -10.0583
     0.8151   1.5023   2.2323   2.6795   3.0619   3.8911   4.1409   4.3387
     4.6300   5.4108   5.5999   5.6397   6.0562   7.1068   7.9934  10.0532
    10.3326  11.7131

          k =-0.0000 0.0008 0.1876 (  3893 PWs)   bands (ev):

   -72.9009 -42.3232 -41.5505 -40.9402 -11.6860 -10.7087 -10.3608 -10.0940
     1.0081   1.7953   1.9883   3.0638   3.0725   3.8532   4.0340   4.4518
     4.6284   4.9474   5.5496   5.5610   5.7525   7.0643   8.0933   9.7654
    10.3760  12.8273

          k = 0.0000-0.0017-0.3751 (  3894 PWs)   bands (ev):

   -72.9008 -42.3233 -41.5506 -40.9402 -11.3501 -10.9888 -10.4349 -10.1447
     1.2595   1.8310   2.5265   3.0134   3.0596   3.4920   3.8489   4.5410
     4.5565   4.8372   5.4638   5.4781   5.6124   7.0209   8.1712   9.5304
    10.4200  14.4296

          k = 0.0001 0.1193-0.0963 (  3888 PWs)   bands (ev):

   -72.9009 -42.3232 -41.5505 -40.9402 -11.7794 -10.5832 -10.4186 -10.0423
     1.0361   1.5197   2.1923   2.7884   3.0981   3.9123   4.1268   4.2845
     4.7039   5.0099   5.4737   5.5916   6.0586   7.1297   7.9873  10.1151
    10.3749  12.5039

          k = 0.0001 0.1202 0.0913 (  3903 PWs)   bands (ev):

   -72.9009 -42.3232 -41.5505 -40.9402 -11.7297 -10.7897 -10.2577 -10.0465
     0.9495   1.8001   2.0941   2.8902   3.0285   3.8114   3.8920   4.4560
     4.6448   5.2093   5.5456   5.5738   5.8286   7.1008   8.0903   9.7648
    10.3329  12.4784

          k = 0.0001 0.1176-0.4714 (  3923 PWs)   bands (ev):

   -72.9009 -42.3233 -41.5505 -40.9402 -11.3990 -11.0685 -10.3377 -10.0863
     1.3031   1.6494   2.4381   3.0271   3.1501   3.5109   3.8758   4.3450
     4.5608   5.0843   5.4291   5.4583   5.6627   7.0567   8.1908   9.5298
    10.3769  13.8307

          k = 0.0001 0.1185-0.2838 (  3906 PWs)   bands (ev):

   -72.9008 -42.3232 -41.5506 -40.9402 -11.5339 -10.7889 -10.4877 -10.0809
     1.2318   1.7885   2.2268   2.9706   3.0977   3.8271   3.8714   4.4054
     4.5141   4.9083   5.4295   5.5082   5.7585   7.0900   8.1123   9.8429
    10.4180  14.0678

          k =-0.0001-0.2387 0.1925 (  3908 PWs)   bands (ev):

   -72.9009 -42.3232 -41.5506 -40.9402 -11.6464 -10.6841 -10.5035 -10.0298
     1.0181   1.8598   2.3992   2.8220   3.1370   3.6028   3.9373   4.2251
     4.5852   4.9929   5.4656   5.5426   6.0621   7.1528   7.9793  10.1814
    10.4166  13.8095

          k =-0.0001-0.2378 0.3801 (  3905 PWs)   bands (ev):

   -72.9009 -42.3232 -41.5505 -40.9402 -11.5913 -10.8596 -10.3785 -10.0366
     1.3339   1.7550   1.9983   2.9101   3.0602   3.7949   3.9143   4.4083
     4.7429   4.8981   5.4245   5.4937   5.7935   7.1250   8.1197   9.8470
    10.3751  13.4022

          k =-0.0001-0.2404-0.1826 (  3896 PWs)   bands (ev):

   -72.9009 -42.3233 -41.5505 -40.9402 -11.4399 -11.1386 -10.2455 -10.0405
     1.1570   1.8133   2.3175   2.9965   3.0344   3.7036   3.9047   4.1084
     4.5703   5.1917   5.4452   5.5575   5.7144   7.0909   8.1592   9.5113
    10.3337  13.7383

          k = 0.2489-0.0612-0.1389 (  3914 PWs)   bands (ev):

   -72.8981 -42.3203 -41.5451 -40.9782 -11.3288 -10.5845 -10.2146 -10.0497
     1.3971   1.6637   2.1297   2.4280   2.7892   3.0138   3.8142   4.0053
     4.2702   5.0165   5.2937   5.4942   6.1050   6.9604   8.0064   9.6754
    10.0836  13.9223

          k = 0.2489-0.0604 0.0487 (  3892 PWs)   bands (ev):

   -72.8981 -42.3202 -41.5451 -40.9782 -11.4285 -10.4578 -10.2583 -10.0171
     1.4162   1.8133   2.0404   2.4477   2.8211   2.8755   3.7029   3.9536
     4.2986   5.0134   5.3748   5.5535   6.0328   7.0525   7.9363   9.7393
    10.0576  13.5751

          k = 0.2489-0.0629-0.5140 (  3918 PWs)   bands (ev):

   -72.8981 -42.3203 -41.5451 -40.9782 -11.2322 -10.5541 -10.3500 -10.0662
     1.3177   1.6733   2.2004   2.5595   2.6755   3.0076   3.9736   4.1009
     4.3990   4.9245   5.0529   5.4633   6.1448   6.9545   8.0023   9.6247
    10.0108  14.6936

          k = 0.2489-0.0621-0.3265 (  3915 PWs)   bands (ev):

   -72.8981 -42.3203 -41.5451 -40.9782 -11.0424 -10.7711 -10.3029 -10.1028
     1.3249   1.6406   2.0986   2.4452   2.7315   3.3570   3.9021   4.1914
     4.3760   4.8680   5.0015   5.4511   6.1629   6.8765   8.0691   9.7843
     9.8425  15.0914

          k = 0.2490 0.0581-0.2352 (  3915 PWs)   bands (ev):

   -72.8981 -42.3203 -41.5451 -40.9782 -11.2344 -10.5531 -10.3482 -10.0664
     1.3168   1.6750   2.2014   2.5558   2.6765   3.0045   3.9710   4.0986
     4.4014   4.9304   5.0502   5.4649   6.1459   6.9566   8.0009   9.6266
    10.0093  14.6872

          k = 0.2490 0.0589-0.0476 (  3895 PWs)   bands (ev):

   -72.8981 -42.3202 -41.5451 -40.9782 -11.4298 -10.4577 -10.2566 -10.0172
     1.4155   1.8129   2.0403   2.4467   2.8155   2.8821   3.7015   3.9514
     4.3016   5.0082   5.3824   5.5537   6.0304   7.0533   7.9363   9.7393
    10.0583  13.5714

          k = 0.2490 0.0564-0.6103 (  3909 PWs)   bands (ev):

   -72.8981 -42.3203 -41.5451 -40.9782 -11.3282 -10.5835 -10.2157 -10.0503
     1.3955   1.6651   2.1293   2.4250   2.7963   3.0110   3.8146   4.0078
     4.2731   5.0120   5.2902   5.4955   6.1066   6.9609   8.0066   9.6714
    10.0844  13.9284

          k = 0.2490 0.0572-0.4227 (  3913 PWs)   bands (ev):

   -72.8981 -42.3203 -41.5451 -40.9782 -11.0420 -10.7699 -10.3040 -10.1036
     1.3248   1.6400   2.0984   2.4443   2.7319   3.3604   3.9054   4.1902
     4.3716   4.8658   5.0042   5.4523   6.1640   6.8774   8.0676   9.7845
     9.8397  15.0949

          k = 0.2488-0.2999 0.0536 (  3925 PWs)   bands (ev):

   -72.8981 -42.3203 -41.5451 -40.9782 -11.1628 -10.6508 -10.3491 -10.0508
     1.4653   1.8318   2.1136   2.4584   2.6793   3.1181   3.6910   4.0166
     4.3822   4.8993   5.1120   5.5218   6.1343   6.9670   8.0178   9.6351
    10.0914  14.6976

          k = 0.2488-0.2991 0.2412 (  3913 PWs)   bands (ev):

   -72.8981 -42.3202 -41.5451 -40.9782 -11.2976 -10.4780 -10.4034 -10.0169
     1.3821   1.9682   2.2612   2.5039   2.6661   2.8919   3.5393   3.9168
     4.4912   4.9141   5.1428   5.5778   6.0963   7.0740   7.9249   9.6830
    10.0527  14.4748

          k = 0.2488-0.3016-0.3215 (  3910 PWs)   bands (ev):

   -72.8981 -42.3203 -41.5451 -40.9782 -11.2773 -10.6458 -10.2288 -10.0368
     1.6034   1.7787   1.9265   2.5602   2.7920   3.0554   3.5558   3.8789
     4.1456   5.0701   5.3477   5.5575   6.0886   6.9663   8.0203   9.6951
    10.1674  13.8531

          k = 0.2488-0.3008-0.1340 (  3919 PWs)   bands (ev):

   -72.8981 -42.3203 -41.5451 -40.9782 -11.0607 -10.8756 -10.2032 -10.0654
     1.5626   1.7056   1.9640   2.5606   2.7660   3.0956   3.5119   4.1632
     4.2808   4.8563   5.3120   5.5211   6.1383   6.8736   8.0824   9.8804
     9.9284  14.6190

          k = 0.2489-0.1806-0.0427 (  3912 PWs)   bands (ev):

   -72.8981 -42.3203 -41.5451 -40.9782 -11.2756 -10.6466 -10.2304 -10.0365
     1.6043   1.7804   1.9245   2.5671   2.7911   3.0468   3.5563   3.8792
     4.1482   5.0744   5.3394   5.5609   6.0903   6.9657   8.0187   9.6981
    10.1644  13.8537

          k = 0.2489-0.1797 0.1449 (  3918 PWs)   bands (ev):

   -72.8981 -42.3202 -41.5451 -40.9782 -11.2957 -10.4787 -10.4051 -10.0168
     1.3816   1.9672   2.2651   2.5088   2.6648   2.8886   3.5380   3.9180
     4.4905   4.9108   5.1460   5.5771   6.0965   7.0731   7.9250   9.6823
    10.0529  14.4821

          k = 0.2489-0.1823-0.4178 (  3924 PWs)   bands (ev):

   -72.8981 -42.3203 -41.5451 -40.9782 -11.1631 -10.6521 -10.3478 -10.0502
     1.4650   1.8331   2.1114   2.4614   2.6751   3.1236   3.6860   4.0202
     4.3812   4.9021   5.1107   5.5192   6.1316   6.9654   8.0200   9.6343
    10.0949  14.6910

          k = 0.2489-0.1814-0.2302 (  3912 PWs)   bands (ev):

   -72.8981 -42.3203 -41.5451 -40.9782 -11.0609 -10.8768 -10.2021 -10.0650
     1.5636   1.7039   1.9658   2.5625   2.7654   3.0946   3.5076   4.1652
     4.2808   4.8540   5.3176   5.5187   6.1366   6.8726   8.0835   9.8796
     9.9321  14.6177

          k =-0.4979 0.1225 0.2778 (  3922 PWs)   bands (ev):

   -72.8959 -42.3174 -41.5396 -41.0158 -10.6479 -10.4437 -10.2693 -10.1278
     0.7025   1.2083   1.8433   2.2719   2.5894   3.5066   3.8820   4.2521
     4.5246   4.7812   4.8073   5.3210   5.9534   6.7820   7.9114   9.9742
    10.0856  15.3047

          k =-0.4979 0.1233 0.4654 (  3915 PWs)   bands (ev):

   -72.8958 -42.3173 -41.5396 -41.0158 -10.6957 -10.4590 -10.2562 -10.0844
     0.9112   1.2355   1.9685   2.3709   2.5988   3.4297   3.6764   4.2125
     4.3823   4.5239   4.9122   5.1593   5.9497   6.9544   7.8961   9.7828
    10.0472  15.8379

          k =-0.4979 0.1208-0.0973 (  3934 PWs)   bands (ev):

   -72.8958 -42.3173 -41.5397 -41.0158 -10.7352 -10.4780 -10.2405 -10.0480
     1.0854   1.3513   2.2114   2.4335   2.6610   3.0882   3.4020   4.1455
     4.3298   4.4922   4.8842   5.0387   5.9405   7.0852   7.8849   9.5659
    10.0614  16.0716

          k =-0.4978 0.2418 0.1816 (  3931 PWs)   bands (ev):

   -72.8959 -42.3174 -41.5397 -41.0158 -10.6479 -10.4436 -10.2689 -10.1284
     0.7665   1.1127   1.8498   2.2685   2.5692   3.6651   3.8552   4.1887
     4.5180   4.7636   4.8191   5.3137   5.9524   6.7857   7.9048   9.9896
    10.0597  15.6317

          k =-0.4978 0.2427 0.3691 (  3926 PWs)   bands (ev):

   -72.8958 -42.3173 -41.5397 -41.0158 -10.6961 -10.4627 -10.2522 -10.0841
     0.8983   1.2704   1.9659   2.2276   2.7996   3.3412   3.6751   4.1904
     4.3948   4.5241   4.9298   5.1636   5.9478   6.9603   7.8954   9.7696
    10.0613  15.6232

          k =-0.4978 0.2401-0.1936 (  3912 PWs)   bands (ev):

   -72.8958 -42.3173 -41.5396 -41.0158 -10.7380 -10.4733 -10.2454 -10.0447
     1.1023   1.3195   2.1748   2.5232   2.6974   2.9949   3.4666   4.1243
     4.2612   4.4860   4.8665   5.0987   5.9442   7.0917   7.8847   9.5744
    10.0528  16.0249

          k =-0.4978 0.2410-0.0060 (  3926 PWs)   bands (ev):

   -72.8958 -42.3173 -41.5397 -41.0158 -10.6951 -10.4607 -10.2542 -10.0852
     0.8974   1.2705   1.9618   2.2266   2.7989   3.3430   3.6760   4.1964
     4.4005   4.5216   4.9307   5.1607   5.9485   6.9585   7.8942   9.7705
    10.0614  15.6149

          k =-0.4980-0.1162 0.4703 (  3926 PWs)   bands (ev):

   -72.8959 -42.3174 -41.5397 -41.0158 -10.6483 -10.4420 -10.2706 -10.1277
     0.7042   1.2079   1.8402   2.2643   2.5818   3.5085   3.8924   4.2595
     4.5321   4.7776   4.8085   5.3184   5.9539   6.7820   7.9083   9.9703
    10.0872  15.2971

          k =-0.4980-0.1153 0.6579 (  3915 PWs)   bands (ev):

   -72.8958 -42.3173 -41.5396 -41.0158 -10.6969 -10.4595 -10.2556 -10.0830
     0.9145   1.2341   1.9676   2.3683   2.5921   3.4298   3.6781   4.2168
     4.3801   4.5292   4.9128   5.1593   5.9496   6.9563   7.8945   9.7803
    10.0475  15.8486

          k =-0.4980-0.1179 0.0952 (  3928 PWs)   bands (ev):

   -72.8958 -42.3173 -41.5397 -41.0158 -10.7372 -10.4802 -10.2382 -10.0458
     1.0905   1.3512   2.2099   2.4294   2.6578   3.0874   3.4036   4.1427
     4.3292   4.4933   4.8888   5.0382   5.9397   7.0886   7.8844   9.5613
    10.0617  16.0731

     the Fermi energy is     7.0274 ev

!    total energy              =    -520.62048303 Ry
     total all-electron energy =     -3720.873741 Ry
     estimated scf accuracy    <          8.3E-09 Ry
     smearing contrib. (-TS)   =      -0.00503279 Ry
     internal energy E=F+TS    =    -520.61545025 Ry

     The total energy is F=E-TS. E is the sum of the following terms:
     one-electron contribution =    -240.17370748 Ry
     hartree contribution      =     145.14564862 Ry
     xc contribution           =     -61.24575649 Ry
     ewald contribution        =    -185.84541652 Ry
     Hubbard energy            =       0.24480208 Ry
     one-center paw contrib.   =    -178.74102045 Ry

     convergence has been achieved in  11 iterations
     force_hub    :     85.12s CPU     14.16s WALL (       6 calls)
     dndtau       :     75.66s CPU     12.53s WALL (    4536 calls)
     dprojdtau    :     11.33s CPU      1.86s WALL (    4536 calls)
     calc_doverla :     41.91s CPU      6.77s WALL (    4536 calls)
     matel_dSdtau :     55.72s CPU      9.07s WALL (    9072 calls)

     Forces acting on atoms (cartesian axes, Ry/au):

     atom    1 type  1   force =     0.00102957    0.00202805   -0.00360011
     atom    2 type  1   force =     0.00003845    0.00075271    0.00445438
     atom    3 type  3   force =    -0.00042237   -0.00076524   -0.00289331
     atom    4 type  2   force =    -0.00037261    0.00101761    0.00257636
     atom    5 type  2   force =     0.00008943   -0.00082766   -0.00440865
     atom    6 type  2   force =     0.00017543   -0.00372355    0.00122067
     atom    7 type  2   force =    -0.00053789    0.00151807    0.00265065

     Total force =     0.010031     Total SCF correction =     0.000082


     Computing stress (Cartesian axis) and pressure

     stres_hub    :    239.52s CPU     36.50s WALL (       6 calls)
     dprojdepsilo :    198.81s CPU     30.31s WALL (    1944 calls)
     dprojdeps1   :     19.30s CPU      3.18s WALL (    1944 calls)
     dprojdeps2   :    115.34s CPU     17.08s WALL (    1944 calls)
     dprojdeps3   :     64.16s CPU     10.03s WALL (    1944 calls)
          total   stress  (Ry/bohr**3)                   (kbar)     P=       -1.58
  -0.00005044  -0.00000399   0.00000423           -7.42       -0.59        0.62
  -0.00000399  -0.00000296   0.00001209           -0.59       -0.43        1.78
   0.00000423   0.00001209   0.00002126            0.62        1.78        3.13

     Energy error            =      3.3E-04 Ry
     Gradient error          =      4.5E-03 Ry/Bohr
     Cell gradient error     =      7.4E+00 kbar

     number of scf cycles    =   6
     number of bfgs steps    =   5

     enthalpy           old  =    -520.6201580238 Ry
     enthalpy           new  =    -520.6204830336 Ry

     CASE: enthalpy          _new < enthalpy          _old

     new trust radius        =       0.0188617525 bohr
     new conv_thr            =       0.0000000325 Ry

     new unit-cell volume =    487.91584 a.u.^3 (    72.30167 Ang^3 )
     density =      3.84795 g/cm^3

CELL_PARAMETERS (angstrom)
   2.965482742  -0.002455237   0.000700480
   1.499111688   6.178150216  -0.021428528
   2.966370404   3.172718846   3.935054980

ATOMIC_POSITIONS (angstrom)
Mg               3.4416421595        4.7806831472        1.4506046023
Mg               3.4394595991        1.1042418475        0.3272995610
Mn               4.9238133153        2.3190604774        2.5305465503
O                3.4561575588        6.8882012890        1.7999096710
O                4.9237783043        4.3012123290        2.8637774951
O                3.4413051627        2.7852991758        1.3594234650
O                4.9375793306        8.3837092278        3.8794409994



     Writing config-only to output data dir .\out\\qgan.save\ :
     XML data file
     NEW-OLD atomic charge density approx. for the potential
     New effective cutoffs (rho, wfc):  494.85   61.90

     Check: negative core charge=   -0.000002

     Atomic wfc used for Hubbard projectors are orthogonalized


     total cpu time spent up to now is      380.8 secs

     Self-consistent Calculation

     iteration #  1     ecut=    60.00 Ry     beta= 0.70
     Davidson diagonalization with overlap
     ethr =  1.00E-06,  avg # of iterations = 10.4

     =================== HUBBARD OCCUPATIONS ===================
     ------------------------ ATOM    3 ------------------------
     Tr[ns(  3)] =   5.23929
     eigenvalues:
       0.220  0.311  0.399  0.714  0.976
     eigenvectors (columns):
      -0.536 -0.000  0.203  0.003 -0.819
       0.002 -0.965 -0.003  0.264 -0.001
       0.803 -0.001  0.422 -0.003 -0.421
      -0.261 -0.004  0.883  0.000  0.389
      -0.004 -0.264 -0.001 -0.965 -0.001
     occupation matrix ns (before diag.):
       0.735  0.001  0.276 -0.209 -0.001
       0.001  0.339 -0.000 -0.000 -0.103
       0.276 -0.000  0.386 -0.057  0.002
      -0.209 -0.000 -0.057  0.474 -0.001
      -0.001 -0.103  0.002 -0.001  0.686

     Number of occupied Hubbard levels =    5.2393

     total cpu time spent up to now is      386.8 secs

     total energy              =    -520.62057411 Ry
     estimated scf accuracy    <       0.00017732 Ry

     iteration #  2     ecut=    60.00 Ry     beta= 0.70
     Davidson diagonalization with overlap
     ethr =  4.12E-07,  avg # of iterations =  4.2

     total cpu time spent up to now is      389.8 secs

     total energy              =    -520.62046379 Ry
     estimated scf accuracy    <       0.00136665 Ry

     iteration #  3     ecut=    60.00 Ry     beta= 0.70
     Davidson diagonalization with overlap
     ethr =  4.12E-07,  avg # of iterations =  2.6

     total cpu time spent up to now is      392.4 secs

     total energy              =    -520.62060380 Ry
     estimated scf accuracy    <       0.00022420 Ry

     iteration #  4     ecut=    60.00 Ry     beta= 0.70
     Davidson diagonalization with overlap
     ethr =  4.12E-07,  avg # of iterations =  2.0

     total cpu time spent up to now is      394.8 secs

     total energy              =    -520.62064525 Ry
     estimated scf accuracy    <       0.00003847 Ry

     iteration #  5     ecut=    60.00 Ry     beta= 0.70
     Davidson diagonalization with overlap
     ethr =  8.95E-08,  avg # of iterations =  4.5

     total cpu time spent up to now is      397.8 secs

     total energy              =    -520.62066002 Ry
     estimated scf accuracy    <       0.00001693 Ry

     iteration #  6     ecut=    60.00 Ry     beta= 0.70
     Davidson diagonalization with overlap
     ethr =  3.94E-08,  avg # of iterations =  1.6

     total cpu time spent up to now is      400.0 secs

     total energy              =    -520.62066039 Ry
     estimated scf accuracy    <       0.00000679 Ry

     iteration #  7     ecut=    60.00 Ry     beta= 0.70
     Davidson diagonalization with overlap
     ethr =  1.58E-08,  avg # of iterations =  1.9

     total cpu time spent up to now is      402.3 secs

     total energy              =    -520.62066053 Ry
     estimated scf accuracy    <       0.00000185 Ry

     iteration #  8     ecut=    60.00 Ry     beta= 0.70
     Davidson diagonalization with overlap
     ethr =  4.30E-09,  avg # of iterations =  5.3

     total cpu time spent up to now is      405.4 secs

     total energy              =    -520.62066134 Ry
     estimated scf accuracy    <       0.00000008 Ry

     iteration #  9     ecut=    60.00 Ry     beta= 0.70
     Davidson diagonalization with overlap
     c_bands:  2 eigenvalues not converged
     c_bands:  5 eigenvalues not converged
     c_bands:  3 eigenvalues not converged
     c_bands:  2 eigenvalues not converged
     c_bands:  1 eigenvalues not converged
     c_bands:  5 eigenvalues not converged
     c_bands:  3 eigenvalues not converged
     c_bands:  4 eigenvalues not converged
     c_bands:  1 eigenvalues not converged
     c_bands:  3 eigenvalues not converged
     c_bands:  1 eigenvalues not converged
     ethr =  1.83E-10,  avg # of iterations = 20.9

     total cpu time spent up to now is      414.3 secs

     total energy              =    -520.62066179 Ry
     estimated scf accuracy    <       0.00000016 Ry

     iteration # 10     ecut=    60.00 Ry     beta= 0.70
     Davidson diagonalization with overlap
     ethr =  1.83E-10,  avg # of iterations =  3.3

     total cpu time spent up to now is      417.2 secs

     total energy              =    -520.62066181 Ry
     estimated scf accuracy    <       0.00000007 Ry

     iteration # 11     ecut=    60.00 Ry     beta= 0.70
     Davidson diagonalization with overlap
     ethr =  1.62E-10,  avg # of iterations =  2.5

     total cpu time spent up to now is      419.8 secs

     End of self-consistent calculation

     =================== HUBBARD OCCUPATIONS ===================
     ------------------------ ATOM    3 ------------------------
     Tr[ns(  3)] =   5.23662
     eigenvalues:
       0.219  0.311  0.398  0.714  0.975
     eigenvectors (columns):
      -0.537  0.000  0.204  0.003 -0.818
       0.002 -0.964 -0.003  0.264 -0.001
       0.803 -0.000  0.422 -0.003 -0.422
      -0.259 -0.004  0.883  0.000  0.390
      -0.004 -0.264 -0.002 -0.964 -0.001
     occupation matrix ns (before diag.):
       0.733  0.001  0.276 -0.209 -0.001
       0.001  0.339 -0.000 -0.000 -0.103
       0.276 -0.000  0.386 -0.058  0.002
      -0.209 -0.000 -0.058  0.474 -0.001
      -0.001 -0.103  0.002 -0.001  0.686

     Number of occupied Hubbard levels =    5.2366

          k = 0.0000 0.0000 0.0000 (  3895 PWs)   bands (ev):

   -72.8956 -42.3201 -41.5443 -40.9343 -11.8816 -10.5508 -10.2857 -10.0648
     0.8179   1.4992   2.2341   2.6917   3.0653   3.9096   4.1160   4.3542
     4.6254   5.4058   5.6109   5.6485   6.0516   7.1244   7.9946  10.0586
    10.3327  11.7163

          k =-0.0000 0.0007 0.1874 (  3893 PWs)   bands (ev):

   -72.8955 -42.3201 -41.5444 -40.9343 -11.6850 -10.7063 -10.3565 -10.1019
     1.0120   1.7951   1.9845   3.0673   3.0776   3.8710   4.0274   4.4663
     4.6085   4.9486   5.5576   5.5724   5.7530   7.0816   8.0946   9.7703
    10.3751  12.8315

          k = 0.0001-0.0013-0.3749 (  3894 PWs)   bands (ev):

   -72.8954 -42.3202 -41.5444 -40.9343 -11.3542 -10.9820 -10.4280 -10.1541
     1.2706   1.8233   2.5141   3.0122   3.0635   3.4939   3.8652   4.5456
     4.5587   4.8359   5.4651   5.4921   5.6183   7.0380   8.1749   9.5319
    10.4182  14.4362

          k = 0.0001 0.1193-0.0963 (  3888 PWs)   bands (ev):

   -72.8955 -42.3201 -41.5444 -40.9343 -11.7770 -10.5793 -10.4199 -10.0478
     1.0385   1.5171   2.1928   2.7960   3.1008   3.9307   4.1164   4.3007
     4.6904   5.0136   5.4735   5.6008   6.0577   7.1478   7.9874  10.1212
    10.3737  12.5075

          k = 0.0001 0.1200 0.0911 (  3903 PWs)   bands (ev):

   -72.8956 -42.3201 -41.5443 -40.9343 -11.7288 -10.7885 -10.2515 -10.0550
     0.9500   1.7998   2.0966   2.8938   3.0326   3.8082   3.9100   4.4709
     4.6284   5.2065   5.5551   5.5769   5.8270   7.1182   8.0915   9.7720
    10.3334  12.4818

          k = 0.0002 0.1180-0.4712 (  3923 PWs)   bands (ev):

   -72.8955 -42.3202 -41.5444 -40.9343 -11.4030 -11.0628 -10.3301 -10.0953
     1.3064   1.6510   2.4263   3.0314   3.1542   3.5112   3.8926   4.3397
     4.5749   5.0771   5.4279   5.4704   5.6659   7.0739   8.1926   9.5361
    10.3764  13.8412

          k = 0.0002 0.1187-0.2837 (  3906 PWs)   bands (ev):

   -72.8955 -42.3201 -41.5444 -40.9343 -11.5330 -10.7865 -10.4850 -10.0870
     1.2348   1.7884   2.2219   2.9697   3.1007   3.8296   3.8888   4.4207
     4.5053   4.9011   5.4310   5.5200   5.7620   7.1078   8.1139   9.8475
    10.4158  14.0747

          k =-0.0002-0.2387 0.1926 (  3908 PWs)   bands (ev):

   -72.8955 -42.3201 -41.5444 -40.9343 -11.6437 -10.6804 -10.5057 -10.0343
     1.0175   1.8599   2.3981   2.8274   3.1389   3.6019   3.9555   4.2422
     4.5751   4.9886   5.4640   5.5522   6.0627   7.1714   7.9787  10.1884
    10.4140  13.8183

          k =-0.0003-0.2380 0.3801 (  3905 PWs)   bands (ev):

   -72.8955 -42.3201 -41.5444 -40.9343 -11.5904 -10.8586 -10.3741 -10.0430
     1.3340   1.7533   1.9995   2.9114   3.0637   3.7984   3.9320   4.4239
     4.7400   4.8819   5.4219   5.5035   5.7969   7.1428   8.1207   9.8540
    10.3743  13.4072

          k =-0.0002-0.2400-0.1822 (  3896 PWs)   bands (ev):

   -72.8956 -42.3202 -41.5443 -40.9343 -11.4438 -11.1336 -10.2366 -10.0502
     1.1537   1.8239   2.3090   3.0012   3.0337   3.7091   3.9218   4.1043
     4.5852   5.1806   5.4550   5.5534   5.7144   7.1082   8.1601   9.5210
    10.3345  13.7518

          k = 0.2494-0.0610-0.1388 (  3914 PWs)   bands (ev):

   -72.8927 -42.3171 -41.5388 -40.9729 -11.3255 -10.5807 -10.2156 -10.0484
     1.4034   1.6707   2.1272   2.4318   2.7779   3.0167   3.8251   4.0059
     4.2747   5.0138   5.2884   5.4996   6.1061   6.9696   8.0124   9.6791
    10.0883  13.9267

          k = 0.2493-0.0603 0.0486 (  3892 PWs)   bands (ev):

   -72.8927 -42.3171 -41.5388 -40.9729 -11.4241 -10.4532 -10.2619 -10.0152
     1.4217   1.8124   2.0467   2.4447   2.8236   2.8681   3.7073   3.9697
     4.2933   5.0217   5.3729   5.5505   6.0333   7.0600   7.9421   9.7439
    10.0632  13.5780

          k = 0.2494-0.0623-0.5137 (  3918 PWs)   bands (ev):

   -72.8927 -42.3171 -41.5389 -40.9729 -11.2291 -10.5504 -10.3481 -10.0674
     1.3230   1.6804   2.1969   2.5563   2.6728   3.0108   3.9851   4.1153
     4.3906   4.9155   5.0543   5.4654   6.1471   6.9611   8.0083   9.6306
    10.0184  14.7001

          k = 0.2494-0.0616-0.3262 (  3915 PWs)   bands (ev):

   -72.8927 -42.3172 -41.5389 -40.9729 -11.0437 -10.7635 -10.2987 -10.1057
     1.3343   1.6478   2.0917   2.4441   2.7311   3.3587   3.9094   4.1976
     4.3799   4.8558   5.0002   5.4523   6.1677   6.8839   8.0752   9.7908
     9.8484  15.0982

          k = 0.2495 0.0583-0.2351 (  3915 PWs)   bands (ev):

   -72.8927 -42.3171 -41.5389 -40.9729 -11.2308 -10.5495 -10.3467 -10.0676
     1.3227   1.6816   2.1976   2.5530   2.6736   3.0082   3.9826   4.1141
     4.3926   4.9196   5.0523   5.4669   6.1480   6.9632   8.0070   9.6331
    10.0164  14.6948

          k = 0.2494 0.0590-0.0477 (  3895 PWs)   bands (ev):

   -72.8927 -42.3171 -41.5388 -40.9729 -11.4251 -10.4532 -10.2605 -10.0152
     1.4213   1.8119   2.0465   2.4440   2.8190   2.8737   3.7063   3.9681
     4.2956   5.0175   5.3783   5.5510   6.0316   7.0608   7.9421   9.7440
    10.0637  13.5751

          k = 0.2496 0.0570-0.6100 (  3909 PWs)   bands (ev):

   -72.8927 -42.3171 -41.5388 -40.9729 -11.3249 -10.5801 -10.2165 -10.0488
     1.4019   1.6718   2.1271   2.4291   2.7837   3.0147   3.8258   4.0078
     4.2768   5.0101   5.2858   5.5007   6.1073   6.9698   8.0128   9.6751
    10.0896  13.9317

          k = 0.2495 0.0577-0.4225 (  3913 PWs)   bands (ev):

   -72.8927 -42.3172 -41.5389 -40.9729 -11.0434 -10.7626 -10.2996 -10.1062
     1.3343   1.6471   2.0918   2.4432   2.7313   3.3614   3.9120   4.1969
     4.3760   4.8544   5.0022   5.4532   6.1687   6.8846   8.0741   9.7915
     9.8457  15.1013

          k = 0.2491-0.2997 0.0538 (  3925 PWs)   bands (ev):

   -72.8927 -42.3171 -41.5389 -40.9729 -11.1595 -10.6484 -10.3460 -10.0519
     1.4692   1.8408   2.1077   2.4635   2.6735   3.1201   3.7009   4.0265
     4.3772   4.8908   5.1119   5.5228   6.1388   6.9733   8.0225   9.6446
    10.0986  14.7050

          k = 0.2491-0.2990 0.2412 (  3913 PWs)   bands (ev):

   -72.8927 -42.3171 -41.5389 -40.9729 -11.2925 -10.4753 -10.4033 -10.0175
     1.3844   1.9718   2.2588   2.5059   2.6639   2.8947   3.5493   3.9310
     4.4802   4.9042   5.1520   5.5789   6.0989   7.0790   7.9293   9.6907
    10.0621  14.4829

          k = 0.2492-0.3010-0.3211 (  3910 PWs)   bands (ev):

   -72.8927 -42.3171 -41.5388 -40.9729 -11.2737 -10.6434 -10.2277 -10.0363
     1.6079   1.7801   1.9349   2.5586   2.7889   3.0545   3.5622   3.8831
     4.1455   5.0698   5.3424   5.5606   6.0928   6.9747   8.0252   9.7014
    10.1726  13.8568

          k = 0.2492-0.3003-0.1336 (  3919 PWs)   bands (ev):

   -72.8927 -42.3172 -41.5388 -40.9729 -11.0631 -10.8679 -10.2000 -10.0662
     1.5670   1.7144   1.9692   2.5615   2.7560   3.1013   3.5101   4.1673
     4.2857   4.8459   5.3072   5.5299   6.1416   6.8829   8.0880   9.8881
     9.9316  14.6228

          k = 0.2492-0.1803-0.0425 (  3912 PWs)   bands (ev):

   -72.8927 -42.3171 -41.5388 -40.9729 -11.2725 -10.6438 -10.2290 -10.0362
     1.6089   1.7815   1.9332   2.5644   2.7873   3.0477   3.5622   3.8833
     4.1479   5.0734   5.3362   5.5628   6.0943   6.9744   8.0236   9.7045
    10.1697  13.8572

          k = 0.2492-0.1797 0.1449 (  3918 PWs)   bands (ev):

   -72.8927 -42.3171 -41.5389 -40.9729 -11.2910 -10.4758 -10.4046 -10.0174
     1.3839   1.9709   2.2619   2.5102   2.6623   2.8925   3.5479   3.9320
     4.4796   4.9018   5.1549   5.5781   6.0990   7.0781   7.9294   9.6901
    10.0623  14.4888

          k = 0.2493-0.1816-0.4174 (  3924 PWs)   bands (ev):

   -72.8927 -42.3171 -41.5389 -40.9729 -11.1597 -10.6496 -10.3449 -10.0515
     1.4686   1.8419   2.1059   2.4662   2.6705   3.1245   3.6968   4.0296
     4.3765   4.8928   5.1107   5.5208   6.1366   6.9717   8.0245   9.6431
    10.1022  14.6998

          k = 0.2493-0.1810-0.2299 (  3912 PWs)   bands (ev):

   -72.8927 -42.3172 -41.5388 -40.9729 -11.0633 -10.8688 -10.1990 -10.0660
     1.5678   1.7129   1.9706   2.5632   2.7557   3.1004   3.5067   4.1688
     4.2858   4.8440   5.3114   5.5282   6.1401   6.8822   8.0889   9.8869
     9.9350  14.6218

          k =-0.4987 0.1220 0.2776 (  3922 PWs)   bands (ev):

   -72.8904 -42.3141 -41.5333 -41.0111 -10.6380 -10.4403 -10.2852 -10.1095
     0.7081   1.2092   1.8407   2.2742   2.5933   3.4972   3.8864   4.2548
     4.5356   4.7615   4.8013   5.3282   5.9656   6.7867   7.9189   9.9812
    10.0906  15.3011

          k =-0.4988 0.1226 0.4650 (  3915 PWs)   bands (ev):

   -72.8904 -42.3141 -41.5333 -41.0111 -10.6840 -10.4570 -10.2706 -10.0677
     0.9142   1.2311   1.9686   2.3762   2.6013   3.4240   3.6770   4.2174
     4.3901   4.5147   4.9084   5.1613   5.9620   6.9571   7.9039   9.7891
    10.0548  15.8368

          k =-0.4986 0.1207-0.0973 (  3934 PWs)   bands (ev):

   -72.8903 -42.3141 -41.5333 -41.0111 -10.7222 -10.4770 -10.2542 -10.0322
     1.0815   1.3462   2.2090   2.4412   2.6622   3.0966   3.4008   4.1403
     4.3421   4.4867   4.8903   5.0316   5.9527   7.0868   7.8930   9.5733
    10.0692  16.0831

          k =-0.4986 0.2413 0.1813 (  3931 PWs)   bands (ev):

   -72.8904 -42.3141 -41.5333 -41.0111 -10.6379 -10.4403 -10.2848 -10.1099
     0.7735   1.1116   1.8480   2.2703   2.5760   3.6526   3.8589   4.1887
     4.5292   4.7488   4.8115   5.3213   5.9644   6.7902   7.9125   9.9945
    10.0667  15.6176

          k =-0.4986 0.2420 0.3687 (  3926 PWs)   bands (ev):

   -72.8904 -42.3141 -41.5333 -41.0111 -10.6841 -10.4605 -10.2671 -10.0675
     0.8997   1.2681   1.9637   2.2332   2.8024   3.3395   3.6746   4.1964
     4.3997   4.5156   4.9228   5.1681   5.9600   6.9628   7.9033   9.7771
    10.0679  15.6255

          k =-0.4985 0.2400-0.1936 (  3912 PWs)   bands (ev):

   -72.8903 -42.3141 -41.5333 -41.0111 -10.7249 -10.4718 -10.2591 -10.0296
     1.0981   1.3137   2.1768   2.5295   2.6991   2.9961   3.4712   4.1187
     4.2718   4.4811   4.8706   5.0942   5.9567   7.0928   7.8929   9.5819
    10.0611  16.0361

          k =-0.4986 0.2407-0.0061 (  3926 PWs)   bands (ev):

   -72.8904 -42.3141 -41.5333 -41.0111 -10.6833 -10.4590 -10.2686 -10.0683
     0.8992   1.2680   1.9603   2.2324   2.8020   3.3406   3.6758   4.2010
     4.4039   4.5143   4.9234   5.1658   5.9606   6.9615   7.9024   9.7773
    10.0683  15.6190

          k =-0.4990-0.1167 0.4702 (  3926 PWs)   bands (ev):

   -72.8904 -42.3141 -41.5333 -41.0111 -10.6383 -10.4389 -10.2863 -10.1094
     0.7097   1.2085   1.8382   2.2685   2.5870   3.4987   3.8950   4.2600
     4.5422   4.7585   4.8024   5.3261   5.9660   6.7868   7.9165   9.9772
    10.0925  15.2950

          k =-0.4990-0.1160 0.6577 (  3915 PWs)   bands (ev):

   -72.8904 -42.3141 -41.5333 -41.0111 -10.6850 -10.4574 -10.2702 -10.0666
     0.9169   1.2298   1.9681   2.3739   2.5959   3.4238   3.6789   4.2201
     4.3884   4.5195   4.9087   5.1614   5.9618   6.9587   7.9027   9.7869
    10.0551  15.8449

          k =-0.4989-0.1180 0.0954 (  3928 PWs)   bands (ev):

   -72.8903 -42.3141 -41.5333 -41.0111 -10.7238 -10.4787 -10.2524 -10.0305
     1.0855   1.3462   2.2083   2.4377   2.6595   3.0962   3.4017   4.1384
     4.3416   4.4873   4.8940   5.0312   5.9521   7.0896   7.8925   9.5699
    10.0693  16.0836

     the Fermi energy is     7.0358 ev

!    total energy              =    -520.62066186 Ry
     total all-electron energy =     -3720.873920 Ry
     estimated scf accuracy    <       0.00000002 Ry
     smearing contrib. (-TS)   =      -0.00496395 Ry
     internal energy E=F+TS    =    -520.61569791 Ry

     The total energy is F=E-TS. E is the sum of the following terms:
     one-electron contribution =    -240.26214174 Ry
     hartree contribution      =     145.19414226 Ry
     xc contribution           =     -61.24662915 Ry
     ewald contribution        =    -185.80494792 Ry
     Hubbard energy            =       0.24468061 Ry
     one-center paw contrib.   =    -178.74080197 Ry

     convergence has been achieved in  11 iterations
     force_hub    :    100.38s CPU     16.52s WALL (       7 calls)
     dndtau       :     88.64s CPU     14.64s WALL (    5292 calls)
     dprojdtau    :     14.09s CPU      2.17s WALL (    5292 calls)
     calc_doverla :     48.08s CPU      7.88s WALL (    5292 calls)
     matel_dSdtau :     64.91s CPU     10.60s WALL (   10584 calls)

     Forces acting on atoms (cartesian axes, Ry/au):

     atom    1 type  1   force =     0.00077274    0.00207807   -0.00165624
     atom    2 type  1   force =     0.00005120   -0.00131354    0.00379950
     atom    3 type  3   force =    -0.00040119   -0.00125708   -0.00127291
     atom    4 type  2   force =    -0.00036219    0.00113600    0.00158050
     atom    5 type  2   force =     0.00008333   -0.00156207   -0.00379158
     atom    6 type  2   force =     0.00026020   -0.00026481    0.00070242
     atom    7 type  2   force =    -0.00040409    0.00118343    0.00063831

     Total force =     0.007108     Total SCF correction =     0.000079


     Computing stress (Cartesian axis) and pressure

     stres_hub    :    279.17s CPU     42.46s WALL (       7 calls)
     dprojdepsilo :    232.61s CPU     35.25s WALL (    2268 calls)
     dprojdeps1   :     22.27s CPU      3.71s WALL (    2268 calls)
     dprojdeps2   :    136.81s CPU     19.87s WALL (    2268 calls)
     dprojdeps3   :     73.52s CPU     11.66s WALL (    2268 calls)
          total   stress  (Ry/bohr**3)                   (kbar)     P=       -1.33
  -0.00002604  -0.00000273   0.00000358           -3.83       -0.40        0.53
  -0.00000273  -0.00000789   0.00000463           -0.40       -1.16        0.68
   0.00000358   0.00000463   0.00000690            0.53        0.68        1.01

     Energy error            =      1.8E-04 Ry
     Gradient error          =      3.8E-03 Ry/Bohr
     Cell gradient error     =      3.8E+00 kbar

     number of scf cycles    =   7
     number of bfgs steps    =   6

     enthalpy           old  =    -520.6204830336 Ry
     enthalpy           new  =    -520.6206618629 Ry

     CASE: enthalpy          _new < enthalpy          _old

     new trust radius        =       0.0083164994 bohr
     new conv_thr            =       0.0000000179 Ry

     new unit-cell volume =    487.74379 a.u.^3 (    72.27617 Ang^3 )
     density =      3.84931 g/cm^3

CELL_PARAMETERS (angstrom)
   2.961338113  -0.003019211   0.001269392
   1.495800557   6.180047746  -0.017241970
   2.962377716   3.175782267   3.940355612

ATOMIC_POSITIONS (angstrom)
Mg               3.4375198754        4.7829765220        1.4511166781
Mg               3.4345353504        1.1049822432        0.3305437865
Mn               4.9164482106        2.3199807993        2.5341069371
O                3.4497457142        6.8915704325        1.8097930606
O                4.9168906933        4.3027686485        2.8652469898
O                3.4364011856        2.7840419214        1.3633837014
O                4.9290765464        8.3905484947        3.8914856676



     Writing config-only to output data dir .\out\\qgan.save\ :
     XML data file
     NEW-OLD atomic charge density approx. for the potential
     New effective cutoffs (rho, wfc):  493.80   61.76

     Check: negative core charge=   -0.000002

     Atomic wfc used for Hubbard projectors are orthogonalized


     total cpu time spent up to now is      431.2 secs

     Self-consistent Calculation

     iteration #  1     ecut=    60.00 Ry     beta= 0.70
     Davidson diagonalization with overlap
     ethr =  1.00E-06,  avg # of iterations =  9.0

     =================== HUBBARD OCCUPATIONS ===================
     ------------------------ ATOM    3 ------------------------
     Tr[ns(  3)] =   5.23718
     eigenvalues:
       0.220  0.311  0.398  0.714  0.976
     eigenvectors (columns):
      -0.538  0.000  0.205  0.003 -0.818
       0.002 -0.965 -0.003  0.263 -0.001
       0.803 -0.000  0.421 -0.003 -0.422
      -0.258 -0.004  0.884 -0.000  0.391
      -0.003 -0.263 -0.002 -0.965 -0.001
     occupation matrix ns (before diag.):
       0.733  0.001  0.277 -0.209 -0.001
       0.001  0.339 -0.000 -0.001 -0.102
       0.277 -0.000  0.386 -0.058  0.002
      -0.209 -0.001 -0.058  0.475 -0.000
      -0.001 -0.102  0.002 -0.000  0.686

     Number of occupied Hubbard levels =    5.2372

     Threshold (ethr) on eigenvalues was too large:
     Diagonalizing with lowered threshold

     Davidson diagonalization with overlap
     ethr =  7.49E-08,  avg # of iterations =  3.2

     total cpu time spent up to now is      439.4 secs

     total energy              =    -520.62071973 Ry
     estimated scf accuracy    <       0.00003354 Ry

     iteration #  2     ecut=    60.00 Ry     beta= 0.70
     Davidson diagonalization with overlap
     ethr =  7.80E-08,  avg # of iterations =  4.5

     total cpu time spent up to now is      442.3 secs

     total energy              =    -520.62071168 Ry
     estimated scf accuracy    <       0.00008452 Ry

     iteration #  3     ecut=    60.00 Ry     beta= 0.70
     Davidson diagonalization with overlap
     ethr =  7.80E-08,  avg # of iterations =  2.1

     total cpu time spent up to now is      444.8 secs

     total energy              =    -520.62072148 Ry
     estimated scf accuracy    <       0.00004927 Ry

     iteration #  4     ecut=    60.00 Ry     beta= 0.70
     Davidson diagonalization with overlap
     ethr =  7.80E-08,  avg # of iterations =  2.0

     total cpu time spent up to now is      447.5 secs

     total energy              =    -520.62072900 Ry
     estimated scf accuracy    <       0.00002322 Ry

     iteration #  5     ecut=    60.00 Ry     beta= 0.70
     Davidson diagonalization with overlap
     ethr =  5.40E-08,  avg # of iterations =  1.1

     total cpu time spent up to now is      450.0 secs

     total energy              =    -520.62073150 Ry
     estimated scf accuracy    <       0.00000104 Ry

     iteration #  6     ecut=    60.00 Ry     beta= 0.70
     Davidson diagonalization with overlap
     ethr =  2.42E-09,  avg # of iterations =  6.4

     total cpu time spent up to now is      453.5 secs

     total energy              =    -520.62073244 Ry
     estimated scf accuracy    <       0.00000064 Ry

     iteration #  7     ecut=    60.00 Ry     beta= 0.70
     Davidson diagonalization with overlap
     ethr =  1.49E-09,  avg # of iterations =  2.3

     total cpu time spent up to now is      455.9 secs

     total energy              =    -520.62073258 Ry
     estimated scf accuracy    <       0.00000009 Ry

     iteration #  8     ecut=    60.00 Ry     beta= 0.70
     Davidson diagonalization with overlap
     c_bands:  1 eigenvalues not converged
     ethr =  2.16E-10,  avg # of iterations = 13.3

     total cpu time spent up to now is      460.9 secs

     total energy              =    -520.62073276 Ry
     estimated scf accuracy    <       0.00000011 Ry

     iteration #  9     ecut=    60.00 Ry     beta= 0.70
     Davidson diagonalization with overlap
     ethr =  2.16E-10,  avg # of iterations =  1.4

     total cpu time spent up to now is      463.3 secs

     total energy              =    -520.62073279 Ry
     estimated scf accuracy    <       0.00000006 Ry

     iteration # 10     ecut=    60.00 Ry     beta= 0.70
     Davidson diagonalization with overlap
     ethr =  1.45E-10,  avg # of iterations =  3.7

     total cpu time spent up to now is      466.0 secs

     total energy              =    -520.62073286 Ry
     estimated scf accuracy    <       0.00000004 Ry

     iteration # 11     ecut=    60.00 Ry     beta= 0.70
     Davidson diagonalization with overlap
     ethr =  8.88E-11,  avg # of iterations =  3.0

     total cpu time spent up to now is      468.9 secs

     total energy              =    -520.62073285 Ry
     estimated scf accuracy    <       0.00000002 Ry

     iteration # 12     ecut=    60.00 Ry     beta= 0.70
     Davidson diagonalization with overlap
     ethr =  4.89E-11,  avg # of iterations =  7.1

     total cpu time spent up to now is      472.1 secs

     End of self-consistent calculation

     =================== HUBBARD OCCUPATIONS ===================
     ------------------------ ATOM    3 ------------------------
     Tr[ns(  3)] =   5.23689
     eigenvalues:
       0.219  0.311  0.398  0.714  0.976
     eigenvectors (columns):
       0.540  0.001 -0.205  0.002 -0.816
      -0.001 -0.964  0.002  0.265 -0.002
      -0.802  0.000 -0.421 -0.002 -0.424
       0.256 -0.003 -0.884 -0.000  0.392
       0.002 -0.265  0.002 -0.964 -0.001
     occupation matrix ns (before diag.):
       0.731  0.001  0.277 -0.209 -0.000
       0.001  0.340  0.000 -0.001 -0.103
       0.277  0.000  0.387 -0.059  0.001
      -0.209 -0.001 -0.059  0.475 -0.000
      -0.000 -0.103  0.001 -0.000  0.685

     Number of occupied Hubbard levels =    5.2369

          k = 0.0000 0.0000 0.0000 (  3895 PWs)   bands (ev):

   -72.8894 -42.3163 -41.5365 -40.9278 -11.8809 -10.5522 -10.2837 -10.0608
     0.8175   1.4990   2.2324   2.7000   3.0689   3.9241   4.1041   4.3663
     4.6219   5.4086   5.6213   5.6661   6.0549   7.1370   7.9995  10.0674
    10.3397  11.7233

          k =-0.0001 0.0005 0.1873 (  3893 PWs)   bands (ev):

   -72.8893 -42.3164 -41.5366 -40.9278 -11.6853 -10.7075 -10.3516 -10.0999
     1.0123   1.7951   1.9829   3.0708   3.0807   3.8855   4.0244   4.4777
     4.5969   4.9532   5.5676   5.5913   5.7594   7.0941   8.0998   9.7788
    10.3817  12.8388

          k = 0.0002-0.0011-0.3746 (  3894 PWs)   bands (ev):

   -72.8892 -42.3164 -41.5366 -40.9278 -11.3583 -10.9796 -10.4210 -10.1537
     1.2732   1.8203   2.5086   3.0137   3.0671   3.4944   3.8790   4.5427
     4.5682   4.8368   5.4722   5.5125   5.6277   7.0504   8.1813   9.5388
    10.4244  14.4462

          k = 0.0002 0.1194-0.0963 (  3888 PWs)   bands (ev):

   -72.8894 -42.3163 -41.5366 -40.9278 -11.7764 -10.5796 -10.4189 -10.0439
     1.0391   1.5157   2.1917   2.8004   3.1039   3.9455   4.1108   4.3130
     4.6851   5.0180   5.4800   5.6184   6.0626   7.1608   7.9917  10.1305
    10.3800  12.5142

          k = 0.0001 0.1199 0.0910 (  3903 PWs)   bands (ev):

   -72.8894 -42.3164 -41.5366 -40.9278 -11.7288 -10.7903 -10.2452 -10.0541
     0.9490   1.7985   2.0981   2.8969   3.0364   3.8067   3.9244   4.4824
     4.6196   5.2117   5.5729   5.5825   5.8313   7.1309   8.0963   9.7818
    10.3406  12.4885

          k = 0.0003 0.1183-0.4709 (  3923 PWs)   bands (ev):

   -72.8893 -42.3164 -41.5366 -40.9278 -11.4059 -11.0619 -10.3223 -10.0955
     1.3067   1.6503   2.4207   3.0353   3.1591   3.5113   3.9065   4.3383
     4.5858   5.0754   5.4326   5.4897   5.6734   7.0865   8.1979   9.5455
    10.3832  13.8521

          k = 0.0002 0.1188-0.2836 (  3906 PWs)   bands (ev):

   -72.8893 -42.3164 -41.5366 -40.9278 -11.5338 -10.7864 -10.4816 -10.0843
     1.2352   1.7886   2.2180   2.9708   3.1037   3.8313   3.9034   4.4323
     4.5009   4.8995   5.4382   5.5390   5.7695   7.1208   8.1191   9.8558
    10.4217  14.0835

          k =-0.0003-0.2387 0.1926 (  3908 PWs)   bands (ev):

   -72.8893 -42.3163 -41.5366 -40.9278 -11.6433 -10.6773 -10.5081 -10.0302
     1.0181   1.8572   2.3968   2.8301   3.1414   3.6035   3.9707   4.2545
     4.5703   4.9898   5.4693   5.5700   6.0675   7.1848   7.9827  10.1981
    10.4196  13.8276

          k =-0.0004-0.2382 0.3799 (  3905 PWs)   bands (ev):

   -72.8893 -42.3164 -41.5366 -40.9278 -11.5905 -10.8603 -10.3688 -10.0410
     1.3333   1.7519   1.9989   2.9126   3.0672   3.8010   3.9464   4.4356
     4.7403   4.8771   5.4259   5.5216   5.8035   7.1559   8.1254   9.8637
    10.3809  13.4143

          k =-0.0002-0.2398-0.1820 (  3896 PWs)   bands (ev):

   -72.8894 -42.3164 -41.5365 -40.9278 -11.4457 -11.1337 -10.2278 -10.0513
     1.1519   1.8249   2.3047   3.0053   3.0368   3.7134   3.9358   4.1035
     4.5965   5.1784   5.4732   5.5543   5.7208   7.1211   8.1648   9.5320
    10.3420  13.7624

          k = 0.2497-0.0608-0.1387 (  3914 PWs)   bands (ev):

   -72.8865 -42.3133 -41.5310 -40.9670 -11.3239 -10.5803 -10.2149 -10.0395
     1.4056   1.6759   2.1257   2.4340   2.7736   3.0205   3.8357   4.0078
     4.2814   5.0119   5.2909   5.5093   6.1119   6.9784   8.0205   9.6872
    10.0980  13.9328

          k = 0.2496-0.0603 0.0486 (  3892 PWs)   bands (ev):

   -72.8865 -42.3133 -41.5310 -40.9670 -11.4218 -10.4529 -10.2620 -10.0061
     1.4238   1.8127   2.0505   2.4431   2.8269   2.8648   3.7114   3.9864
     4.2912   5.0280   5.3750   5.5570   6.0390   7.0680   7.9496   9.7528
    10.0733  13.5838

          k = 0.2499-0.0619-0.5133 (  3918 PWs)   bands (ev):

   -72.8865 -42.3133 -41.5310 -40.9670 -11.2284 -10.5492 -10.3454 -10.0603
     1.3258   1.6848   2.1956   2.5547   2.6738   3.0129   3.9961   4.1254
     4.3871   4.9154   5.0560   5.4742   6.1545   6.9685   8.0162   9.6410
    10.0285  14.7073

          k = 0.2498-0.0614-0.3260 (  3915 PWs)   bands (ev):

   -72.8865 -42.3133 -41.5310 -40.9670 -11.0463 -10.7594 -10.2946 -10.0997
     1.3390   1.6521   2.0891   2.4448   2.7338   3.3585   3.9167   4.2044
     4.3849   4.8517   5.0017   5.4600   6.1763   6.8917   8.0833   9.8012
     9.8577  15.1026

          k = 0.2499 0.0585-0.2350 (  3915 PWs)   bands (ev):

   -72.8865 -42.3133 -41.5310 -40.9670 -11.2298 -10.5485 -10.3443 -10.0605
     1.3257   1.6856   2.1961   2.5519   2.6744   3.0112   3.9936   4.1250
     4.3889   4.9184   5.0543   5.4754   6.1551   6.9702   8.0153   9.6426
    10.0270  14.7030

          k = 0.2498 0.0591-0.0477 (  3895 PWs)   bands (ev):

   -72.8865 -42.3133 -41.5310 -40.9670 -11.4226 -10.4529 -10.2610 -10.0061
     1.4237   1.8122   2.0504   2.4423   2.8226   2.8696   3.7107   3.9851
     4.2932   5.0245   5.3791   5.5576   6.0376   7.0687   7.9496   9.7529
    10.0735  13.5815

          k = 0.2500 0.0574-0.6096 (  3909 PWs)   bands (ev):

   -72.8865 -42.3133 -41.5310 -40.9670 -11.3235 -10.5798 -10.2156 -10.0398
     1.4043   1.6770   2.1255   2.4319   2.7782   3.0186   3.8366   4.0091
     4.2827   5.0092   5.2890   5.5103   6.1128   6.9785   8.0208   9.6843
    10.0987  13.9368

          k = 0.2500 0.0580-0.4223 (  3913 PWs)   bands (ev):

   -72.8865 -42.3133 -41.5310 -40.9670 -11.0460 -10.7587 -10.2953 -10.1001
     1.3390   1.6516   2.0890   2.4440   2.7339   3.3607   3.9189   4.2039
     4.3816   4.8508   5.0031   5.4608   6.1772   6.8923   8.0824   9.8015
     9.8557  15.1051

          k = 0.2494-0.2995 0.0539 (  3925 PWs)   bands (ev):

   -72.8865 -42.3133 -41.5310 -40.9670 -11.1588 -10.6477 -10.3425 -10.0453
     1.4721   1.8453   2.1044   2.4672   2.6727   3.1220   3.7082   4.0352
     4.3770   4.8911   5.1134   5.5303   6.1477   6.9800   8.0298   9.6560
    10.1093  14.7120

          k = 0.2493-0.2990 0.2412 (  3913 PWs)   bands (ev):

   -72.8865 -42.3133 -41.5310 -40.9670 -11.2903 -10.4740 -10.4025 -10.0103
     1.3869   1.9718   2.2582   2.5092   2.6639   2.8959   3.5556   3.9451
     4.4756   4.9043   5.1580   5.5871   6.1070   7.0850   7.9360   9.7013
    10.0739  14.4917

          k = 0.2496-0.3006-0.3207 (  3910 PWs)   bands (ev):

   -72.8865 -42.3133 -41.5310 -40.9670 -11.2720 -10.6436 -10.2256 -10.0285
     1.6110   1.7820   1.9381   2.5578   2.7893   3.0546   3.5697   3.8868
     4.1505   5.0718   5.3433   5.5691   6.1007   6.9829   8.0320   9.7120
    10.1817  13.8622

          k = 0.2495-0.3001-0.1334 (  3919 PWs)   bands (ev):

   -72.8865 -42.3134 -41.5310 -40.9670 -11.0646 -10.8651 -10.1967 -10.0591
     1.5704   1.7194   1.9704   2.5628   2.7535   3.1053   3.5132   4.1730
     4.2915   4.8407   5.3097   5.5403   6.1488   6.8916   8.0957   9.8985
     9.9403  14.6237

          k = 0.2496-0.1802-0.0424 (  3912 PWs)   bands (ev):

   -72.8865 -42.3133 -41.5310 -40.9670 -11.2710 -10.6439 -10.2265 -10.0284
     1.6117   1.7829   1.9368   2.5625   2.7877   3.0497   3.5694   3.8873
     4.1524   5.0745   5.3385   5.5706   6.1021   6.9826   8.0308   9.7142
    10.1796  13.8623

          k = 0.2495-0.1796 0.1449 (  3918 PWs)   bands (ev):

   -72.8865 -42.3133 -41.5310 -40.9670 -11.2892 -10.4744 -10.4035 -10.0102
     1.3864   1.9712   2.2605   2.5128   2.6627   2.8943   3.5542   3.9458
     4.4750   4.9026   5.1604   5.5864   6.1071   7.0842   7.9360   9.7008
    10.0742  14.4964

          k = 0.2497-0.1813-0.4170 (  3924 PWs)   bands (ev):

   -72.8865 -42.3133 -41.5310 -40.9670 -11.1589 -10.6486 -10.3416 -10.0450
     1.4715   1.8463   2.1032   2.4695   2.6703   3.1252   3.7046   4.0378
     4.3764   4.8925   5.1126   5.5288   6.1458   6.9787   8.0313   9.6551
    10.1121  14.7080

          k = 0.2496-0.1807-0.2297 (  3912 PWs)   bands (ev):

   -72.8865 -42.3133 -41.5310 -40.9670 -11.0648 -10.8658 -10.1959 -10.0590
     1.5711   1.7182   1.9715   2.5644   2.7531   3.1045   3.5105   4.1742
     4.2916   4.8392   5.3130   5.5390   6.1475   6.8910   8.0964   9.8977
     9.9428  14.6229

          k =-0.4994 0.1217 0.2774 (  3922 PWs)   bands (ev):

   -72.8841 -42.3103 -41.5254 -41.0058 -10.6368 -10.4362 -10.2904 -10.0912
     0.7125   1.2107   1.8398   2.2755   2.5957   3.4931   3.8887   4.2602
     4.5439   4.7566   4.8040   5.3318   5.9781   6.7946   7.9271   9.9909
    10.1006  15.3012

          k =-0.4995 0.1222 0.4647 (  3915 PWs)   bands (ev):

   -72.8841 -42.3103 -41.5254 -41.0058 -10.6810 -10.4537 -10.2751 -10.0511
     0.9164   1.2298   1.9689   2.3799   2.6020   3.4219   3.6768   4.2232
     4.3987   4.5152   4.9105   5.1647   5.9746   6.9630   7.9123   9.7993
    10.0658  15.8375

          k =-0.4993 0.1206-0.0972 (  3934 PWs)   bands (ev):

   -72.8841 -42.3102 -41.5254 -41.0058 -10.7179 -10.4741 -10.2585 -10.0166
     1.0799   1.3437   2.2071   2.4469   2.6620   3.1030   3.3994   4.1431
     4.3518   4.4884   4.8963   5.0316   5.9654   7.0916   7.9013   9.5845
    10.0805  16.0874

          k =-0.4993 0.2410 0.1811 (  3931 PWs)   bands (ev):

   -72.8841 -42.3103 -41.5254 -41.0058 -10.6368 -10.4363 -10.2901 -10.0915
     0.7785   1.1121   1.8469   2.2730   2.5789   3.6470   3.8599   4.1930
     4.5371   4.7456   4.8144   5.3256   5.9768   6.7980   7.9210  10.0038
    10.0772  15.6109

          k =-0.4994 0.2416 0.3684 (  3926 PWs)   bands (ev):

   -72.8841 -42.3103 -41.5254 -41.0058 -10.6810 -10.4569 -10.2721 -10.0509
     0.9015   1.2673   1.9630   2.2368   2.8031   3.3398   3.6743   4.2039
     4.4055   4.5164   4.9232   5.1727   5.9727   6.9686   7.9118   9.7878
    10.0787  15.6297

          k =-0.4991 0.2399-0.1935 (  3912 PWs)   bands (ev):

   -72.8841 -42.3102 -41.5254 -41.0058 -10.7204 -10.4688 -10.2632 -10.0145
     1.0961   1.3112   2.1765   2.5349   2.6991   2.9994   3.4717   4.1199
     4.2830   4.4832   4.8751   5.0957   5.9696   7.0971   7.9014   9.5931
    10.0728  16.0430

          k =-0.4992 0.2405-0.0062 (  3926 PWs)   bands (ev):

   -72.8841 -42.3103 -41.5254 -41.0058 -10.6803 -10.4558 -10.2732 -10.0516
     0.9011   1.2672   1.9601   2.2362   2.8027   3.3406   3.6755   4.2077
     4.4085   4.5157   4.9235   5.1709   5.9732   6.9675   7.9110   9.7881
    10.0788  15.6241

          k =-0.4998-0.1171 0.4701 (  3926 PWs)   bands (ev):

   -72.8841 -42.3103 -41.5254 -41.0058 -10.6371 -10.4351 -10.2913 -10.0910
     0.7139   1.2100   1.8377   2.2710   2.5902   3.4944   3.8959   4.2640
     4.5491   4.7543   4.8049   5.3303   5.9785   6.7947   7.9253   9.9878
    10.1019  15.2959

          k =-0.4999-0.1165 0.6574 (  3915 PWs)   bands (ev):

   -72.8841 -42.3103 -41.5254 -41.0058 -10.6818 -10.4541 -10.2747 -10.0502
     0.9188   1.2287   1.9684   2.3779   2.5974   3.4220   3.6785   4.2251
     4.3973   4.5192   4.9106   5.1650   5.9745   6.9643   7.9113   9.7974
    10.0660  15.8437

          k =-0.4996-0.1181 0.0955 (  3928 PWs)   bands (ev):

   -72.8841 -42.3102 -41.5254 -41.0058 -10.7192 -10.4753 -10.2572 -10.0153
     1.0833   1.3436   2.2066   2.4441   2.6594   3.1031   3.4000   4.1413
     4.3517   4.4888   4.8994   5.0314   5.9649   7.0939   7.9010   9.5816
    10.0808  16.0886

     the Fermi energy is     7.0441 ev

!    total energy              =    -520.62073304 Ry
     total all-electron energy =     -3720.873992 Ry
     estimated scf accuracy    <       0.00000001 Ry
     smearing contrib. (-TS)   =      -0.00493260 Ry
     internal energy E=F+TS    =    -520.61580044 Ry

     The total energy is F=E-TS. E is the sum of the following terms:
     one-electron contribution =    -240.43293797 Ry
     hartree contribution      =     145.28685823 Ry
     xc contribution           =     -61.24870415 Ry
     ewald contribution        =    -185.72494538 Ry
     Hubbard energy            =       0.24470113 Ry
     one-center paw contrib.   =    -178.74077231 Ry

     convergence has been achieved in  12 iterations
     force_hub    :    114.42s CPU     18.58s WALL (       8 calls)
     dndtau       :    100.70s CPU     16.46s WALL (    6048 calls)
     dprojdtau    :     15.61s CPU      2.46s WALL (    6048 calls)
     calc_doverla :     54.88s CPU      8.83s WALL (    6048 calls)
     matel_dSdtau :     73.98s CPU     11.88s WALL (   12096 calls)

     Forces acting on atoms (cartesian axes, Ry/au):

     atom    1 type  1   force =     0.00059071    0.00109813   -0.00037536
     atom    2 type  1   force =     0.00001632   -0.00173770    0.00178686
     atom    3 type  3   force =    -0.00031929   -0.00031655    0.00018411
     atom    4 type  2   force =    -0.00036698    0.00036028    0.00073746
     atom    5 type  2   force =     0.00016704   -0.00158528   -0.00211586
     atom    6 type  2   force =     0.00021989    0.00124614   -0.00005113
     atom    7 type  2   force =    -0.00030769    0.00093498   -0.00016607

     Total force =     0.004309     Total SCF correction =     0.000194


     Computing stress (Cartesian axis) and pressure

     stres_hub    :    317.73s CPU     48.12s WALL (       8 calls)
     dprojdepsilo :    265.02s CPU     39.90s WALL (    2592 calls)
     dprojdeps1   :     25.06s CPU      4.21s WALL (    2592 calls)
     dprojdeps2   :    156.20s CPU     22.49s WALL (    2592 calls)
     dprojdeps3   :     83.64s CPU     13.18s WALL (    2592 calls)
          total   stress  (Ry/bohr**3)                   (kbar)     P=       -0.59
  -0.00000292  -0.00000182   0.00000277           -0.43       -0.27        0.41
  -0.00000182  -0.00000362   0.00000144           -0.27       -0.53        0.21
   0.00000277   0.00000144  -0.00000550            0.41        0.21       -0.81

     Energy error            =      7.1E-05 Ry
     Gradient error          =      2.1E-03 Ry/Bohr
     Cell gradient error     =      8.1E-01 kbar

     number of scf cycles    =   8
     number of bfgs steps    =   7

     enthalpy           old  =    -520.6206618629 Ry
     enthalpy           new  =    -520.6207330361 Ry

     CASE: enthalpy          _new < enthalpy          _old

     new trust radius        =       0.0057912518 bohr
     new conv_thr            =       0.0000000100 Ry

     new unit-cell volume =    487.58766 a.u.^3 (    72.25304 Ang^3 )
     density =      3.85054 g/cm^3

CELL_PARAMETERS (angstrom)
   2.959637735  -0.003330572   0.001700601
   1.494274669   6.180319437  -0.015380132
   2.960923647   3.176743232   3.942360255

ATOMIC_POSITIONS (angstrom)
Mg               3.4358932543        4.7849855051        1.4523844557
Mg               3.4325200808        1.1032552184        0.3340541388
Mn               4.9134089474        2.3204525639        2.5355546689
O                3.4469413485        6.8922175570        1.8131560951
O                4.9141602183        4.3019459189        2.8650750736
O                3.4345703717        2.7844712331        1.3649788695
O                4.9255843926        8.3924816792        3.8954065786



     Writing config-only to output data dir .\out\\qgan.save\ :
     XML data file
     NEW-OLD atomic charge density approx. for the potential
     New effective cutoffs (rho, wfc):  493.47   61.72

     Check: negative core charge=   -0.000002

     Atomic wfc used for Hubbard projectors are orthogonalized


     total cpu time spent up to now is      482.8 secs

     Self-consistent Calculation

     iteration #  1     ecut=    60.00 Ry     beta= 0.70
     Davidson diagonalization with overlap
     ethr =  1.00E-06,  avg # of iterations =  5.0

     =================== HUBBARD OCCUPATIONS ===================
     ------------------------ ATOM    3 ------------------------
     Tr[ns(  3)] =   5.23645
     eigenvalues:
       0.219  0.312  0.399  0.713  0.975
     eigenvectors (columns):
       0.540  0.000 -0.206  0.002 -0.816
      -0.001 -0.964  0.002  0.265 -0.002
      -0.802  0.000 -0.420 -0.002 -0.425
       0.255 -0.003 -0.884 -0.001  0.392
       0.002 -0.265  0.002 -0.964 -0.001
     occupation matrix ns (before diag.):
       0.731  0.001  0.278 -0.209 -0.000
       0.001  0.340  0.000 -0.001 -0.103
       0.278  0.000  0.387 -0.059  0.001
      -0.209 -0.001 -0.059  0.475 -0.000
      -0.000 -0.103  0.001 -0.000  0.685

     Number of occupied Hubbard levels =    5.2364

     Threshold (ethr) on eigenvalues was too large:
     Diagonalizing with lowered threshold

     Davidson diagonalization with overlap
     ethr =  1.83E-08,  avg # of iterations =  5.1

     total cpu time spent up to now is      489.1 secs

     total energy              =    -520.62075470 Ry
     estimated scf accuracy    <       0.00000901 Ry

     iteration #  2     ecut=    60.00 Ry     beta= 0.70
     Davidson diagonalization with overlap
     ethr =  2.10E-08,  avg # of iterations =  4.1

     total cpu time spent up to now is      491.9 secs

     total energy              =    -520.62075341 Ry
     estimated scf accuracy    <       0.00001712 Ry

     iteration #  3     ecut=    60.00 Ry     beta= 0.70
     Davidson diagonalization with overlap
     ethr =  2.10E-08,  avg # of iterations =  2.0

     total cpu time spent up to now is      494.2 secs

     total energy              =    -520.62075580 Ry
     estimated scf accuracy    <       0.00001103 Ry

     iteration #  4     ecut=    60.00 Ry     beta= 0.70
     Davidson diagonalization with overlap
     ethr =  2.10E-08,  avg # of iterations =  2.0

     total cpu time spent up to now is      496.4 secs

     total energy              =    -520.62075724 Ry
     estimated scf accuracy    <       0.00000594 Ry

     iteration #  5     ecut=    60.00 Ry     beta= 0.70
     Davidson diagonalization with overlap
     ethr =  1.38E-08,  avg # of iterations =  1.7

     total cpu time spent up to now is      498.6 secs

     total energy              =    -520.62075798 Ry
     estimated scf accuracy    <       0.00000027 Ry

     iteration #  6     ecut=    60.00 Ry     beta= 0.70
     Davidson diagonalization with overlap
     ethr =  6.39E-10,  avg # of iterations =  5.0

     total cpu time spent up to now is      501.8 secs

     total energy              =    -520.62075816 Ry
     estimated scf accuracy    <       0.00000010 Ry

     iteration #  7     ecut=    60.00 Ry     beta= 0.70
     Davidson diagonalization with overlap
     ethr =  2.29E-10,  avg # of iterations =  6.2

     total cpu time spent up to now is      506.3 secs

     total energy              =    -520.62075821 Ry
     estimated scf accuracy    <       0.00000002 Ry

     iteration #  8     ecut=    60.00 Ry     beta= 0.70
     Davidson diagonalization with overlap
     ethr =  4.08E-11,  avg # of iterations = 13.5

     total cpu time spent up to now is      511.3 secs

     total energy              =    -520.62075824 Ry
     estimated scf accuracy    <       0.00000001 Ry

     iteration #  9     ecut=    60.00 Ry     beta= 0.70
     Davidson diagonalization with overlap
     ethr =  2.37E-11,  avg # of iterations =  3.2

     total cpu time spent up to now is      513.9 secs

     End of self-consistent calculation

     =================== HUBBARD OCCUPATIONS ===================
     ------------------------ ATOM    3 ------------------------
     Tr[ns(  3)] =   5.23679
     eigenvalues:
       0.219  0.312  0.399  0.713  0.975
     eigenvectors (columns):
       0.540  0.001  0.206  0.002 -0.816
      -0.001 -0.964 -0.002  0.265 -0.002
      -0.802  0.000  0.420 -0.002 -0.425
       0.255 -0.003  0.884 -0.001  0.392
       0.002 -0.265 -0.002 -0.964 -0.001
     occupation matrix ns (before diag.):
       0.731  0.001  0.278 -0.209 -0.000
       0.001  0.340  0.000 -0.001 -0.103
       0.278  0.000  0.387 -0.059  0.001
      -0.209 -0.001 -0.059  0.476 -0.000
      -0.000 -0.103  0.001 -0.000  0.685

     Number of occupied Hubbard levels =    5.2368

          k = 0.0000 0.0000 0.0000 (  3895 PWs)   bands (ev):

   -72.8854 -42.3128 -41.5322 -40.9236 -11.8804 -10.5530 -10.2822 -10.0551
     0.8168   1.5007   2.2326   2.7025   3.0715   3.9298   4.1032   4.3718
     4.6211   5.4128   5.6273   5.6780   6.0598   7.1420   8.0038  10.0737
    10.3462  11.7295

          k =-0.0001 0.0005 0.1873 (  3893 PWs)   bands (ev):

   -72.8853 -42.3129 -41.5323 -40.9236 -11.6851 -10.7082 -10.3495 -10.0947
     1.0118   1.7965   1.9840   3.0734   3.0818   3.8913   4.0246   4.4828
     4.5949   4.9570   5.5743   5.6035   5.7646   7.0992   8.1046   9.7850
    10.3881  12.8451

          k = 0.0002-0.0010-0.3745 (  3894 PWs)   bands (ev):

   -72.8852 -42.3129 -41.5323 -40.9236 -11.3585 -10.9800 -10.4184 -10.1488
     1.2726   1.8211   2.5101   3.0167   3.0697   3.4933   3.8846   4.5424
     4.5729   4.8379   5.4786   5.5249   5.6340   7.0555   8.1865   9.5446
    10.4307  14.4543

          k = 0.0002 0.1194-0.0963 (  3888 PWs)   bands (ev):

   -72.8853 -42.3128 -41.5323 -40.9236 -11.7759 -10.5797 -10.4182 -10.0383
     1.0392   1.5167   2.1921   2.8013   3.1064   3.9512   4.1113   4.3185
     4.6856   5.0207   5.4865   5.6302   6.0670   7.1660   7.9961  10.1370
    10.3863  12.5199

          k = 0.0001 0.1199 0.0909 (  3903 PWs)   bands (ev):

   -72.8854 -42.3129 -41.5322 -40.9236 -11.7285 -10.7908 -10.2427 -10.0493
     0.9484   1.7984   2.1008   2.8979   3.0391   3.8075   3.9301   4.4877
     4.6177   5.2182   5.5837   5.5865   5.8366   7.1361   8.1006   9.7887
    10.3472  12.4944

          k = 0.0004 0.1184-0.4709 (  3923 PWs)   bands (ev):

   -72.8853 -42.3130 -41.5323 -40.9236 -11.4061 -11.0620 -10.3194 -10.0911
     1.3064   1.6505   2.4220   3.0380   3.1615   3.5120   3.9120   4.3388
     4.5908   5.0765   5.4379   5.5019   5.6790   7.0918   8.2026   9.5522
    10.3897  13.8594

          k = 0.0003 0.1189-0.2836 (  3906 PWs)   bands (ev):

   -72.8852 -42.3129 -41.5323 -40.9236 -11.5335 -10.7868 -10.4800 -10.0790
     1.2352   1.7900   2.2181   2.9723   3.1062   3.8325   3.9091   4.4375
     4.5008   4.9006   5.4451   5.5511   5.7744   7.1260   8.1240   9.8619
    10.4280  14.0900

          k =-0.0004-0.2387 0.1927 (  3908 PWs)   bands (ev):

   -72.8853 -42.3128 -41.5323 -40.9236 -11.6427 -10.6755 -10.5093 -10.0246
     1.0191   1.8570   2.3977   2.8302   3.1438   3.6051   3.9765   4.2600
     4.5715   4.9925   5.4755   5.5817   6.0710   7.1901   7.9871  10.2046
    10.4258  13.8337

          k =-0.0005-0.2383 0.3799 (  3905 PWs)   bands (ev):

   -72.8853 -42.3129 -41.5323 -40.9236 -11.5902 -10.8608 -10.3666 -10.0361
     1.3333   1.7522   1.9999   2.9130   3.0698   3.8037   3.9520   4.4410
     4.7411   4.8790   5.4310   5.5334   5.8081   7.1613   8.1298   9.8706
    10.3873  13.4198

          k =-0.0002-0.2397-0.1819 (  3896 PWs)   bands (ev):

   -72.8854 -42.3129 -41.5322 -40.9236 -11.4461 -11.1335 -10.2247 -10.0473
     1.1517   1.8243   2.3060   3.0081   3.0393   3.7155   3.9412   4.1038
     4.6017   5.1810   5.4850   5.5568   5.7267   7.1265   8.1692   9.5394
    10.3486  13.7680

          k = 0.2499-0.0608-0.1387 (  3914 PWs)   bands (ev):

   -72.8824 -42.3098 -41.5266 -40.9630 -11.3228 -10.5802 -10.2132 -10.0331
     1.4058   1.6787   2.1263   2.4355   2.7746   3.0219   3.8411   4.0103
     4.2856   5.0123   5.2953   5.5164   6.1175   6.9830   8.0255   9.6938
    10.1047  13.9378

          k = 0.2498-0.0603 0.0486 (  3892 PWs)   bands (ev):

   -72.8824 -42.3098 -41.5266 -40.9630 -11.4206 -10.4530 -10.2603  -9.9996
     1.4240   1.8147   2.0512   2.4439   2.8287   2.8654   3.7138   3.9950
     4.2920   5.0305   5.3789   5.5643   6.0445   7.0725   7.9543   9.7595
    10.0805  13.5888

          k = 0.2501-0.0617-0.5132 (  3918 PWs)   bands (ev):

   -72.8824 -42.3098 -41.5267 -40.9630 -11.2276 -10.5491 -10.3434 -10.0540
     1.3265   1.6867   2.1974   2.5554   2.6753   3.0135   4.0025   4.1290
     4.3879   4.9192   5.0569   5.4820   6.1606   6.9727   8.0215   9.6479
    10.0356  14.7123

          k = 0.2500-0.0613-0.3260 (  3915 PWs)   bands (ev):

   -72.8824 -42.3098 -41.5267 -40.9630 -11.0458 -10.7589 -10.2926 -10.0935
     1.3399   1.6541   2.0908   2.4464   2.7357   3.3591   3.9209   4.2081
     4.3886   4.8531   5.0026   5.4675   6.1825   6.8961   8.0886   9.8080
     9.8645  15.1048

          k = 0.2501 0.0586-0.2350 (  3915 PWs)   bands (ev):

   -72.8824 -42.3098 -41.5267 -40.9630 -11.2287 -10.5486 -10.3425 -10.0541
     1.3266   1.6873   2.1979   2.5527   2.6759   3.0124   4.0001   4.1289
     4.3896   4.9218   5.0553   5.4829   6.1611   6.9744   8.0207   9.6496
    10.0337  14.7089

          k = 0.2500 0.0591-0.0478 (  3895 PWs)   bands (ev):

   -72.8824 -42.3098 -41.5266 -40.9630 -11.4213 -10.4530 -10.2595  -9.9996
     1.4240   1.8142   2.0512   2.4432   2.8247   2.8697   3.7133   3.9938
     4.2939   5.0275   5.3824   5.5649   6.0434   7.0730   7.9543   9.7595
    10.0807  13.5870

          k = 0.2503 0.0576-0.6096 (  3909 PWs)   bands (ev):

   -72.8824 -42.3098 -41.5266 -40.9630 -11.3226 -10.5797 -10.2139 -10.0332
     1.4045   1.6796   2.1261   2.4340   2.7786   3.0200   3.8419   4.0114
     4.2864   5.0101   5.2937   5.5174   6.1183   6.9830   8.0257   9.6910
    10.1059  13.9411

          k = 0.2502 0.0581-0.4223 (  3913 PWs)   bands (ev):

   -72.8824 -42.3098 -41.5267 -40.9630 -11.0456 -10.7583 -10.2932 -10.0938
     1.3399   1.6537   2.0905   2.4459   2.7358   3.3611   3.9228   4.2074
     4.3859   4.8524   5.0036   5.4683   6.1833   6.8967   8.0878   9.8086
     9.8625  15.1067

          k = 0.2495-0.2995 0.0540 (  3925 PWs)   bands (ev):

   -72.8824 -42.3098 -41.5267 -40.9630 -11.1577 -10.6475 -10.3407 -10.0391
     1.4735   1.8468   2.1052   2.4691   2.6743   3.1230   3.7110   4.0402
     4.3795   4.8945   5.1148   5.5373   6.1540   6.9842   8.0348   9.6637
    10.1162  14.7166

          k = 0.2494-0.2990 0.2412 (  3913 PWs)   bands (ev):

   -72.8824 -42.3098 -41.5267 -40.9630 -11.2889 -10.4726 -10.4023 -10.0040
     1.3882   1.9723   2.2598   2.5115   2.6652   2.8959   3.5569   3.9525
     4.4770   4.9079   5.1607   5.5947   6.1134   7.0888   7.9407   9.7083
    10.0815  14.4980

          k = 0.2497-0.3005-0.3206 (  3910 PWs)   bands (ev):

   -72.8824 -42.3098 -41.5266 -40.9630 -11.2709 -10.6434 -10.2239 -10.0222
     1.6121   1.7841   1.9386   2.5598   2.7907   3.0547   3.5733   3.8894
     4.1552   5.0741   5.3469   5.5760   6.1069   6.9873   8.0365   9.7192
    10.1888  13.8666

          k = 0.2496-0.3000-0.1333 (  3919 PWs)   bands (ev):

   -72.8824 -42.3099 -41.5266 -40.9630 -11.0641 -10.8645 -10.1948 -10.0529
     1.5717   1.7212   1.9715   2.5652   2.7548   3.1067   3.5165   4.1763
     4.2951   4.8408   5.3142   5.5470   6.1546   6.8962   8.1007   9.9060
     9.9469  14.6238

          k = 0.2497-0.1801-0.0424 (  3912 PWs)   bands (ev):

   -72.8824 -42.3098 -41.5266 -40.9630 -11.2700 -10.6438 -10.2246 -10.0222
     1.6126   1.7848   1.9377   2.5639   2.7893   3.0507   3.5732   3.8901
     4.1568   5.0761   5.3427   5.5772   6.1080   6.9872   8.0356   9.7215
    10.1865  13.8667

          k = 0.2496-0.1796 0.1449 (  3918 PWs)   bands (ev):

   -72.8824 -42.3098 -41.5267 -40.9630 -11.2880 -10.4730 -10.4030 -10.0040
     1.3877   1.9718   2.2614   2.5147   2.6645   2.8947   3.5556   3.9532
     4.4764   4.9066   5.1627   5.5941   6.1135   7.0881   7.9408   9.7079
    10.0817  14.5017

          k = 0.2499-0.1811-0.4169 (  3924 PWs)   bands (ev):

   -72.8824 -42.3098 -41.5267 -40.9630 -11.1579 -10.6482 -10.3400 -10.0388
     1.4729   1.8477   2.1045   2.4712   2.6722   3.1256   3.7076   4.0423
     4.3790   4.8957   5.1145   5.5362   6.1524   6.9829   8.0360   9.6626
    10.1191  14.7134

          k = 0.2498-0.1806-0.2296 (  3912 PWs)   bands (ev):

   -72.8824 -42.3099 -41.5266 -40.9630 -11.0641 -10.8651 -10.1942 -10.0528
     1.5724   1.7202   1.9725   2.5666   2.7542   3.1060   3.5141   4.1774
     4.2952   4.8396   5.3169   5.5458   6.1535   6.8957   8.1013   9.9051
     9.9494  14.6231

          k =-0.4998 0.1215 0.2774 (  3922 PWs)   bands (ev):

   -72.8800 -42.3067 -41.5210 -41.0021 -10.6361 -10.4350 -10.2878 -10.0839
     0.7146   1.2113   1.8408   2.2767   2.5965   3.4938   3.8911   4.2645
     4.5461   4.7604   4.8090   5.3332   5.9852   6.7996   7.9321   9.9981
    10.1078  15.3036

          k =-0.4999 0.1220 0.4647 (  3915 PWs)   bands (ev):

   -72.8800 -42.3067 -41.5210 -41.0021 -10.6797 -10.4525 -10.2726 -10.0443
     0.9177   1.2297   1.9705   2.3816   2.6027   3.4228   3.6774   4.2270
     4.4037   4.5184   4.9147   5.1678   5.9819   6.9672   7.9172   9.8066
    10.0734  15.8399

          k =-0.4995 0.1205-0.0971 (  3934 PWs)   bands (ev):

   -72.8800 -42.3067 -41.5210 -41.0021 -10.7162 -10.4728 -10.2562 -10.0101
     1.0799   1.3432   2.2081   2.4503   2.6613   3.1071   3.3980   4.1492
     4.3549   4.4911   4.9010   5.0355   5.9727   7.0954   7.9060   9.5920
    10.0884  16.0901

          k =-0.4996 0.2409 0.1811 (  3931 PWs)   bands (ev):

   -72.8800 -42.3068 -41.5210 -41.0021 -10.6361 -10.4353 -10.2874 -10.0841
     0.7809   1.1125   1.8478   2.2752   2.5800   3.6472   3.8613   4.1969
     4.5394   4.7491   4.8199   5.3275   5.9839   6.8029   7.9260  10.0108
    10.0847  15.6105

          k =-0.4997 0.2414 0.3684 (  3926 PWs)   bands (ev):

   -72.8800 -42.3067 -41.5210 -41.0021 -10.6796 -10.4555 -10.2698 -10.0442
     0.9027   1.2671   1.9645   2.2384   2.8037   3.3416   3.6748   4.2093
     4.4091   4.5194   4.9272   5.1762   5.9800   6.9726   7.9167   9.7953
    10.0862  15.6339

          k =-0.4994 0.2399-0.1934 (  3912 PWs)   bands (ev):

   -72.8800 -42.3067 -41.5210 -41.0021 -10.7186 -10.4674 -10.2609 -10.0081
     1.0958   1.3110   2.1776   2.5377   2.6989   3.0031   3.4703   4.1249
     4.2882   4.4857   4.8793   5.0997   5.9769   7.1007   7.9061   9.6009
    10.0806  16.0469

          k =-0.4995 0.2404-0.0062 (  3926 PWs)   bands (ev):

   -72.8800 -42.3067 -41.5210 -41.0021 -10.6791 -10.4546 -10.2707 -10.0447
     0.9025   1.2670   1.9619   2.2381   2.8033   3.3423   3.6758   4.2125
     4.4116   4.5189   4.9272   5.1747   5.9804   6.9717   7.9160   9.7952
    10.0866  15.6286

          k =-0.5001-0.1172 0.4701 (  3926 PWs)   bands (ev):

   -72.8800 -42.3067 -41.5210 -41.0021 -10.6364 -10.4342 -10.2885 -10.0837
     0.7160   1.2105   1.8391   2.2730   2.5915   3.4951   3.8972   4.2678
     4.5501   4.7586   4.8097   5.3321   5.9856   6.7997   7.9304   9.9947
    10.1096  15.2986

          k =-0.5002-0.1167 0.6574 (  3915 PWs)   bands (ev):

   -72.8800 -42.3067 -41.5210 -41.0021 -10.6804 -10.4527 -10.2723 -10.0435
     0.9199   1.2288   1.9699   2.3797   2.5985   3.4231   3.6790   4.2286
     4.4027   4.5215   4.9147   5.1684   5.9818   6.9683   7.9163   9.8049
    10.0737  15.8449

          k =-0.4999-0.1182 0.0956 (  3928 PWs)   bands (ev):

   -72.8800 -42.3067 -41.5210 -41.0021 -10.7173 -10.4736 -10.2551 -10.0090
     1.0831   1.3430   2.2076   2.4480   2.6586   3.1074   3.3986   4.1474
     4.3550   4.4913   4.9037   5.0356   5.9723   7.0973   7.9058   9.5896
    10.0885  16.0921

     the Fermi energy is     7.0486 ev

!    total energy              =    -520.62075824 Ry
     total all-electron energy =     -3720.874017 Ry
     estimated scf accuracy    <          3.0E-09 Ry
     smearing contrib. (-TS)   =      -0.00492930 Ry
     internal energy E=F+TS    =    -520.61582894 Ry

     The total energy is F=E-TS. E is the sum of the following terms:
     one-electron contribution =    -240.53802555 Ry
     hartree contribution      =     145.34559757 Ry
     xc contribution           =     -61.25033947 Ry
     ewald contribution        =    -185.67697108 Ry
     Hubbard energy            =       0.24474840 Ry
     one-center paw contrib.   =    -178.74083881 Ry

     convergence has been achieved in   9 iterations
     force_hub    :    129.06s CPU     20.91s WALL (       9 calls)
     dndtau       :    113.59s CPU     18.48s WALL (    6804 calls)
     dprojdtau    :     16.91s CPU      2.75s WALL (    6804 calls)
     calc_doverla :     62.30s CPU      9.89s WALL (    6804 calls)
     matel_dSdtau :     84.02s CPU     13.38s WALL (   13608 calls)

     Forces acting on atoms (cartesian axes, Ry/au):

     atom    1 type  1   force =     0.00049620    0.00024995    0.00006227
     atom    2 type  1   force =    -0.00001317   -0.00115780    0.00040555
     atom    3 type  3   force =    -0.00022386    0.00034851    0.00041024
     atom    4 type  2   force =    -0.00035953   -0.00000094    0.00044834
     atom    5 type  2   force =     0.00022356   -0.00121726   -0.00062675
     atom    6 type  2   force =     0.00015225    0.00103851   -0.00059672
     atom    7 type  2   force =    -0.00027545    0.00073904   -0.00010292

     Total force =     0.002550     Total SCF correction =     0.000031


     Computing stress (Cartesian axis) and pressure

     stres_hub    :    360.23s CPU     53.79s WALL (       9 calls)
     dprojdepsilo :    299.17s CPU     44.55s WALL (    2916 calls)
     dprojdeps1   :     29.16s CPU      4.72s WALL (    2916 calls)
     dprojdeps2   :    174.75s CPU     25.10s WALL (    2916 calls)
     dprojdeps3   :     95.14s CPU     14.72s WALL (    2916 calls)
          total   stress  (Ry/bohr**3)                   (kbar)     P=        0.20
   0.00000980  -0.00000136   0.00000173            1.44       -0.20        0.25
  -0.00000136   0.00000252   0.00000045           -0.20        0.37        0.07
   0.00000173   0.00000045  -0.00000821            0.25        0.07       -1.21

     Energy error            =      2.5E-05 Ry
     Gradient error          =      1.2E-03 Ry/Bohr
     Cell gradient error     =      1.4E+00 kbar

     number of scf cycles    =   9
     number of bfgs steps    =   8

     enthalpy           old  =    -520.6207330361 Ry
     enthalpy           new  =    -520.6207582434 Ry

     CASE: enthalpy          _new < enthalpy          _old

     new trust radius        =       0.0042887227 bohr
     new conv_thr            =       0.0000000100 Ry

     new unit-cell volume =    487.57303 a.u.^3 (    72.25087 Ang^3 )
     density =      3.85066 g/cm^3

CELL_PARAMETERS (angstrom)
   2.959767351  -0.003582997   0.002041420
   1.493805207   6.180785500  -0.014471770
   2.961241954   3.177269967   3.942408969

ATOMIC_POSITIONS (angstrom)
Mg               3.4363760979        4.7863915370        1.4530051434
Mg               3.4326179738        1.1015653859        0.3361875640
Mn               4.9134315924        2.3209359464        2.5359226361
O                3.4463308630        6.8928185002        1.8144496761
O                4.9145345376        4.3008587765        2.8642284276
O                3.4348509451        2.7854014570        1.3651112665
O                4.9252185256        8.3940652465        3.8961993831



     Writing config-only to output data dir .\out\\qgan.save\ :
     XML data file
     NEW-OLD atomic charge density approx. for the potential
     New effective cutoffs (rho, wfc):  493.53   61.73

     Check: negative core charge=   -0.000002

     Atomic wfc used for Hubbard projectors are orthogonalized


     total cpu time spent up to now is      524.9 secs

     Self-consistent Calculation

     iteration #  1     ecut=    60.00 Ry     beta= 0.70
     Davidson diagonalization with overlap
     ethr =  1.00E-06,  avg # of iterations =  5.0

     =================== HUBBARD OCCUPATIONS ===================
     ------------------------ ATOM    3 ------------------------
     Tr[ns(  3)] =   5.23637
     eigenvalues:
       0.219  0.312  0.399  0.713  0.975
     eigenvectors (columns):
       0.540  0.001 -0.207  0.002 -0.816
      -0.001 -0.964  0.002  0.265 -0.002
      -0.802  0.001 -0.419 -0.002 -0.425
       0.254 -0.003 -0.884 -0.001  0.392
       0.002 -0.265  0.002 -0.964 -0.001
     occupation matrix ns (before diag.):
       0.730  0.001  0.278 -0.209 -0.000
       0.001  0.340  0.000 -0.001 -0.103
       0.278  0.000  0.387 -0.059  0.001
      -0.209 -0.001 -0.059  0.476 -0.000
      -0.000 -0.103  0.001 -0.000  0.685

     Number of occupied Hubbard levels =    5.2364

     Threshold (ethr) on eigenvalues was too large:
     Diagonalizing with lowered threshold

     Davidson diagonalization with overlap
     ethr =  1.09E-08,  avg # of iterations =  6.3

     total cpu time spent up to now is      532.0 secs

     total energy              =    -520.62076771 Ry
     estimated scf accuracy    <       0.00000541 Ry

     iteration #  2     ecut=    60.00 Ry     beta= 0.70
     Davidson diagonalization with overlap
     ethr =  1.26E-08,  avg # of iterations =  4.5

     total cpu time spent up to now is      534.8 secs

     total energy              =    -520.62076590 Ry
     estimated scf accuracy    <       0.00001814 Ry

     iteration #  3     ecut=    60.00 Ry     beta= 0.70
     Davidson diagonalization with overlap
     ethr =  1.26E-08,  avg # of iterations =  2.0

     total cpu time spent up to now is      537.2 secs

     total energy              =    -520.62076808 Ry
     estimated scf accuracy    <       0.00000882 Ry

     iteration #  4     ecut=    60.00 Ry     beta= 0.70
     Davidson diagonalization with overlap
     ethr =  1.26E-08,  avg # of iterations =  2.0

     total cpu time spent up to now is      539.5 secs

     total energy              =    -520.62076936 Ry
     estimated scf accuracy    <       0.00000241 Ry

     iteration #  5     ecut=    60.00 Ry     beta= 0.70
     Davidson diagonalization with overlap
     ethr =  5.60E-09,  avg # of iterations =  2.0

     total cpu time spent up to now is      542.0 secs

     total energy              =    -520.62076973 Ry
     estimated scf accuracy    <       0.00000016 Ry

     iteration #  6     ecut=    60.00 Ry     beta= 0.70
     Davidson diagonalization with overlap
     ethr =  3.84E-10,  avg # of iterations =  5.8

     total cpu time spent up to now is      545.4 secs

     total energy              =    -520.62076987 Ry
     estimated scf accuracy    <       0.00000015 Ry

     iteration #  7     ecut=    60.00 Ry     beta= 0.70
     Davidson diagonalization with overlap
     ethr =  3.48E-10,  avg # of iterations =  1.3

     total cpu time spent up to now is      548.0 secs

     total energy              =    -520.62076988 Ry
     estimated scf accuracy    <       0.00000003 Ry

     iteration #  8     ecut=    60.00 Ry     beta= 0.70
     Davidson diagonalization with overlap
     ethr =  7.76E-11,  avg # of iterations =  6.9

     total cpu time spent up to now is      551.7 secs

     End of self-consistent calculation

     =================== HUBBARD OCCUPATIONS ===================
     ------------------------ ATOM    3 ------------------------
     Tr[ns(  3)] =   5.23663
     eigenvalues:
       0.219  0.312  0.399  0.713  0.975
     eigenvectors (columns):
       0.540  0.001 -0.207  0.001 -0.816
      -0.001 -0.964  0.002  0.265 -0.002
      -0.803  0.001 -0.419 -0.002 -0.424
       0.254 -0.003 -0.884 -0.001  0.392
       0.001 -0.265  0.002 -0.964 -0.001
     occupation matrix ns (before diag.):
       0.731  0.001  0.278 -0.209  0.000
       0.001  0.340  0.000 -0.001 -0.103
       0.278  0.000  0.387 -0.059  0.001
      -0.209 -0.001 -0.059  0.476 -0.000
       0.000 -0.103  0.001 -0.000  0.685

     Number of occupied Hubbard levels =    5.2366

          k = 0.0000 0.0000 0.0000 (  3895 PWs)   bands (ev):

   -72.8853 -42.3127 -41.5321 -40.9235 -11.8809 -10.5544 -10.2823 -10.0522
     0.8155   1.5013   2.2332   2.7021   3.0716   3.9285   4.1033   4.3709
     4.6201   5.4153   5.6278   5.6816   6.0615   7.1417   8.0038  10.0751
    10.3462  11.7301

          k =-0.0001 0.0005 0.1873 (  3893 PWs)   bands (ev):

   -72.8852 -42.3128 -41.5321 -40.9235 -11.6854 -10.7095 -10.3500 -10.0917
     1.0111   1.7972   1.9841   3.0735   3.0814   3.8902   4.0241   4.4819
     4.5948   4.9582   5.5758   5.6070   5.7654   7.0990   8.1050   9.7861
    10.3882  12.8459

          k = 0.0003-0.0009-0.3746 (  3894 PWs)   bands (ev):

   -72.8851 -42.3128 -41.5321 -40.9235 -11.3580 -10.9820 -10.4193 -10.1456
     1.2711   1.8223   2.5123   3.0177   3.0698   3.4906   3.8835   4.5426
     4.5719   4.8371   5.4811   5.5281   5.6346   7.0554   8.1870   9.5455
    10.4308  14.4561

          k = 0.0002 0.1194-0.0964 (  3888 PWs)   bands (ev):

   -72.8853 -42.3127 -41.5321 -40.9235 -11.7762 -10.5805 -10.4190 -10.0354
     1.0387   1.5172   2.1923   2.7999   3.1066   3.9498   4.1120   4.3177
     4.6864   5.0205   5.4889   5.6337   6.0677   7.1659   7.9962  10.1384
    10.3863  12.5201

          k = 0.0001 0.1198 0.0909 (  3903 PWs)   bands (ev):

   -72.8853 -42.3128 -41.5321 -40.9235 -11.7290 -10.7916 -10.2432 -10.0466
     0.9478   1.7978   2.1028   2.8969   3.0392   3.8073   3.9288   4.4869
     4.6165   5.2212   5.5849   5.5887   5.8380   7.1360   8.1008   9.7903
    10.3472  12.4948

          k = 0.0005 0.1184-0.4710 (  3923 PWs)   bands (ev):

   -72.8852 -42.3129 -41.5321 -40.9236 -11.4062 -11.0632 -10.3200 -10.0884
     1.3057   1.6503   2.4241   3.0380   3.1610   3.5114   3.9109   4.3379
     4.5900   5.0772   5.4397   5.5051   5.6794   7.0918   8.2031   9.5538
    10.3898  13.8600

          k = 0.0003 0.1189-0.2837 (  3906 PWs)   bands (ev):

   -72.8852 -42.3128 -41.5321 -40.9235 -11.5335 -10.7881 -10.4807 -10.0762
     1.2347   1.7905   2.2183   2.9720   3.1063   3.8322   3.9079   4.4366
     4.5011   4.9004   5.4480   5.5545   5.7744   7.1259   8.1244   9.8631
    10.4281  14.0906

          k =-0.0004-0.2387 0.1927 (  3908 PWs)   bands (ev):

   -72.8852 -42.3127 -41.5321 -40.9235 -11.6429 -10.6758 -10.5110 -10.0218
     1.0194   1.8570   2.3982   2.8279   3.1440   3.6050   3.9749   4.2593
     4.5734   4.9929   5.4781   5.5851   6.0706   7.1901   7.9873  10.2061
    10.4259  13.8337

          k =-0.0006-0.2383 0.3800 (  3905 PWs)   bands (ev):

   -72.8852 -42.3128 -41.5321 -40.9235 -11.5905 -10.8616 -10.3672 -10.0336
     1.3333   1.7518   2.0007   2.9117   3.0699   3.8046   3.9507   4.4402
     4.7400   4.8803   5.4331   5.5366   5.8083   7.1613   8.1300   9.8723
    10.3873  13.4198

          k =-0.0002-0.2397-0.1819 (  3896 PWs)   bands (ev):

   -72.8853 -42.3128 -41.5321 -40.9235 -11.4467 -11.1340 -10.2252 -10.0447
     1.1515   1.8232   2.3080   3.0081   3.0395   3.7150   3.9400   4.1025
     4.6010   5.1819   5.4881   5.5574   5.7283   7.1266   8.1694   9.5414
    10.3487  13.7671

          k = 0.2499-0.0607-0.1388 (  3914 PWs)   bands (ev):

   -72.8823 -42.3097 -41.5265 -40.9629 -11.3231 -10.5814 -10.2130 -10.0312
     1.4043   1.6787   2.1263   2.4353   2.7757   3.0205   3.8419   4.0108
     4.2860   5.0114   5.2975   5.5183   6.1184   6.9832   8.0259   9.6945
    10.1056  13.9378

          k = 0.2498-0.0602 0.0485 (  3892 PWs)   bands (ev):

   -72.8823 -42.3097 -41.5265 -40.9630 -11.4211 -10.4545 -10.2597  -9.9977
     1.4226   1.8155   2.0496   2.4444   2.8278   2.8658   3.7136   3.9968
     4.2918   5.0297   5.3810   5.5674   6.0453   7.0726   7.9545   9.7602
    10.0817  13.5886

          k = 0.2501-0.0617-0.5134 (  3918 PWs)   bands (ev):

   -72.8824 -42.3097 -41.5265 -40.9630 -11.2279 -10.5505 -10.3435 -10.0516
     1.3252   1.6864   2.1989   2.5552   2.6748   3.0122   4.0039   4.1282
     4.3888   4.9214   5.0555   5.4848   6.1615   6.9729   8.0220   9.6490
    10.0365  14.7117

          k = 0.2500-0.0612-0.3261 (  3915 PWs)   bands (ev):

   -72.8824 -42.3097 -41.5265 -40.9629 -11.0453 -10.7609 -10.2931 -10.0910
     1.3382   1.6538   2.0924   2.4467   2.7348   3.3588   3.9220   4.2081
     4.3893   4.8540   5.0013   5.4703   6.1832   6.8964   8.0893   9.8095
     9.8647  15.1025

          k = 0.2501 0.0587-0.2351 (  3915 PWs)   bands (ev):

   -72.8824 -42.3097 -41.5265 -40.9630 -11.2287 -10.5502 -10.3427 -10.0518
     1.3254   1.6869   2.1994   2.5526   2.6754   3.0115   4.0018   4.1282
     4.3903   4.9236   5.0541   5.4855   6.1618   6.9744   8.0213   9.6504
    10.0347  14.7089

          k = 0.2500 0.0591-0.0478 (  3895 PWs)   bands (ev):

   -72.8824 -42.3097 -41.5265 -40.9630 -11.4216 -10.4544 -10.2590  -9.9977
     1.4227   1.8151   2.0497   2.4437   2.8242   2.8694   3.7133   3.9956
     4.2935   5.0272   5.3841   5.5679   6.0443   7.0731   7.9544   9.7601
    10.0818  13.5871

          k = 0.2503 0.0577-0.6097 (  3909 PWs)   bands (ev):

   -72.8823 -42.3097 -41.5265 -40.9629 -11.3230 -10.5809 -10.2136 -10.0313
     1.4031   1.6795   2.1261   2.4341   2.7793   3.0187   3.8425   4.0117
     4.2865   5.0098   5.2962   5.5194   6.1192   6.9831   8.0261   9.6921
    10.1068  13.9405

          k = 0.2502 0.0582-0.4224 (  3913 PWs)   bands (ev):

   -72.8824 -42.3097 -41.5265 -40.9629 -11.0452 -10.7603 -10.2935 -10.0912
     1.3382   1.6534   2.0921   2.4465   2.7348   3.3605   3.9238   4.2074
     4.3871   4.8534   5.0021   5.4710   6.1838   6.8969   8.0886   9.8101
     9.8629  15.1039

          k = 0.2495-0.2995 0.0540 (  3925 PWs)   bands (ev):

   -72.8824 -42.3097 -41.5265 -40.9630 -11.1578 -10.6487 -10.3411 -10.0369
     1.4727   1.8462   2.1063   2.4686   2.6744   3.1223   3.7104   4.0408
     4.3806   4.8959   5.1140   5.5396   6.1548   6.9843   8.0353   9.6648
    10.1174  14.7157

          k = 0.2493-0.2990 0.2413 (  3913 PWs)   bands (ev):

   -72.8824 -42.3097 -41.5265 -40.9630 -11.2891 -10.4728 -10.4036 -10.0018
     1.3876   1.9722   2.2609   2.5112   2.6649   2.8943   3.5552   3.9539
     4.4786   4.9096   5.1601   5.5975   6.1145   7.0887   7.9410   9.7089
    10.0830  14.4982

          k = 0.2497-0.3004-0.3206 (  3910 PWs)   bands (ev):

   -72.8823 -42.3097 -41.5265 -40.9629 -11.2712 -10.6443 -10.2241 -10.0201
     1.6112   1.7847   1.9373   2.5613   2.7904   3.0531   3.5734   3.8895
     4.1564   5.0740   5.3487   5.5781   6.1080   6.9874   8.0367   9.7205
    10.1898  13.8663

          k = 0.2496-0.2999-0.1333 (  3919 PWs)   bands (ev):

   -72.8823 -42.3097 -41.5265 -40.9629 -11.0642 -10.8659 -10.1949 -10.0508
     1.5711   1.7203   1.9715   2.5662   2.7549   3.1059   3.5169   4.1760
     4.2956   4.8406   5.3163   5.5484   6.1554   6.8965   8.1011   9.9078
     9.9474  14.6204

          k = 0.2497-0.1801-0.0424 (  3912 PWs)   bands (ev):

   -72.8823 -42.3097 -41.5265 -40.9629 -11.2704 -10.6448 -10.2247 -10.0202
     1.6117   1.7852   1.9366   2.5647   2.7892   3.0498   3.5734   3.8901
     4.1578   5.0753   5.3452   5.5791   6.1088   6.9874   8.0359   9.7224
    10.1877  13.8663

          k = 0.2495-0.1796 0.1449 (  3918 PWs)   bands (ev):

   -72.8824 -42.3097 -41.5265 -40.9630 -11.2883 -10.4732 -10.4042 -10.0018
     1.3871   1.9717   2.2621   2.5140   2.6645   2.8933   3.5539   3.9545
     4.4780   4.9085   5.1617   5.5969   6.1146   7.0882   7.9411   9.7087
    10.0832  14.5012

          k = 0.2499-0.1810-0.4170 (  3924 PWs)   bands (ev):

   -72.8824 -42.3097 -41.5265 -40.9630 -11.1580 -10.6492 -10.3407 -10.0366
     1.4721   1.8470   2.1059   2.4704   2.6724   3.1243   3.7074   4.0427
     4.3802   4.8969   5.1140   5.5388   6.1535   6.9831   8.0364   9.6638
    10.1200  14.7133

          k = 0.2498-0.1806-0.2297 (  3912 PWs)   bands (ev):

   -72.8823 -42.3097 -41.5265 -40.9629 -11.0641 -10.8664 -10.1944 -10.0507
     1.5717   1.7195   1.9725   2.5673   2.7542   3.1055   3.5148   4.1772
     4.2955   4.8397   5.3187   5.5472   6.1545   6.8960   8.1016   9.9069
     9.9496  14.6199

          k =-0.4998 0.1214 0.2775 (  3922 PWs)   bands (ev):

   -72.8800 -42.3066 -41.5209 -41.0020 -10.6368 -10.4368 -10.2848 -10.0841
     0.7145   1.2106   1.8410   2.2761   2.5948   3.4946   3.8919   4.2658
     4.5443   4.7636   4.8118   5.3327   5.9851   6.8001   7.9327   9.9993
    10.1087  15.3029

          k =-0.4999 0.1219 0.4648 (  3915 PWs)   bands (ev):

   -72.8800 -42.3066 -41.5209 -41.0020 -10.6804 -10.4540 -10.2700 -10.0444
     0.9174   1.2291   1.9711   2.3809   2.6014   3.4229   3.6771   4.2279
     4.4050   4.5194   4.9169   5.1686   5.9817   6.9674   7.9176   9.8088
    10.0734  15.8391

          k =-0.4995 0.1205-0.0971 (  3934 PWs)   bands (ev):

   -72.8799 -42.3066 -41.5209 -41.0020 -10.7170 -10.4740 -10.2537 -10.0102
     1.0794   1.3426   2.2091   2.4507   2.6587   3.1079   3.3960   4.1533
     4.3539   4.4912   4.9026   5.0377   5.9726   7.0956   7.9063   9.5942
    10.0886  16.0893

          k =-0.4996 0.2408 0.1812 (  3931 PWs)   bands (ev):

   -72.8800 -42.3066 -41.5209 -41.0020 -10.6368 -10.4372 -10.2843 -10.0844
     0.7809   1.1117   1.8479   2.2751   2.5789   3.6476   3.8611   4.1982
     4.5379   4.7517   4.8228   5.3273   5.9838   6.8034   7.9267  10.0123
    10.0853  15.6086

          k =-0.4997 0.2413 0.3685 (  3926 PWs)   bands (ev):

   -72.8800 -42.3066 -41.5209 -41.0020 -10.6802 -10.4568 -10.2673 -10.0445
     0.9024   1.2662   1.9650   2.2377   2.8025   3.3420   3.6742   4.2113
     4.4097   4.5202   4.9294   5.1769   5.9799   6.9727   7.9171   9.7974
    10.0864  15.6338

          k =-0.4993 0.2399-0.1934 (  3912 PWs)   bands (ev):

   -72.8799 -42.3066 -41.5209 -41.0020 -10.7193 -10.4686 -10.2585 -10.0083
     1.0949   1.3107   2.1781   2.5379   2.6969   3.0042   3.4678   4.1284
     4.2888   4.4856   4.8810   5.1015   5.9768   7.1007   7.9065   9.6033
    10.0806  16.0460

          k =-0.4994 0.2403-0.0061 (  3926 PWs)   bands (ev):

   -72.8800 -42.3066 -41.5209 -41.0020 -10.6798 -10.4562 -10.2680 -10.0449
     0.9023   1.2660   1.9628   2.2375   2.8022   3.3427   3.6750   4.2138
     4.4119   4.5199   4.9293   5.1757   5.9802   6.9720   7.9165   9.7973
    10.0868  15.6289

          k =-0.5002-0.1173 0.4702 (  3926 PWs)   bands (ev):

   -72.8800 -42.3066 -41.5209 -41.0020 -10.6371 -10.4362 -10.2853 -10.0839
     0.7159   1.2097   1.8395   2.2731   2.5905   3.4958   3.8971   4.2686
     4.5474   4.7623   4.8122   5.3319   5.9854   6.8003   7.9312   9.9961
    10.1105  15.2982

          k =-0.5003-0.1168 0.6575 (  3915 PWs)   bands (ev):

   -72.8800 -42.3066 -41.5209 -41.0020 -10.6810 -10.4541 -10.2697 -10.0438
     0.9194   1.2283   1.9705   2.3792   2.5977   3.4234   3.6785   4.2293
     4.4043   4.5219   4.9169   5.1692   5.9817   6.9683   7.9168   9.8072
    10.0737  15.8431

          k =-0.4999-0.1182 0.0956 (  3928 PWs)   bands (ev):

   -72.8799 -42.3066 -41.5209 -41.0020 -10.7180 -10.4747 -10.2529 -10.0093
     1.0822   1.3423   2.2085   2.4488   2.6560   3.1083   3.3966   4.1517
     4.3540   4.4914   4.9049   5.0381   5.9723   7.0972   7.9061   9.5921
    10.0886  16.0917

     the Fermi energy is     7.0487 ev

!    total energy              =    -520.62076989 Ry
     total all-electron energy =     -3720.874028 Ry
     estimated scf accuracy    <          9.4E-09 Ry
     smearing contrib. (-TS)   =      -0.00493271 Ry
     internal energy E=F+TS    =    -520.61583718 Ry

     The total energy is F=E-TS. E is the sum of the following terms:
     one-electron contribution =    -240.58452724 Ry
     hartree contribution      =     145.36912467 Ry
     xc contribution           =     -61.25047434 Ry
     ewald contribution        =    -185.65392270 Ry
     Hubbard energy            =       0.24478649 Ry
     one-center paw contrib.   =    -178.74082407 Ry

     convergence has been achieved in   8 iterations
     force_hub    :    142.41s CPU     23.14s WALL (      10 calls)
     dndtau       :    125.55s CPU     20.46s WALL (    7560 calls)
     dprojdtau    :     18.09s CPU      3.05s WALL (    7560 calls)
     calc_doverla :     69.33s CPU     10.97s WALL (    7560 calls)
     matel_dSdtau :     93.14s CPU     14.77s WALL (   15120 calls)

     Forces acting on atoms (cartesian axes, Ry/au):

     atom    1 type  1   force =     0.00041019   -0.00021456    0.00017273
     atom    2 type  1   force =    -0.00002230   -0.00051680   -0.00012170
     atom    3 type  3   force =    -0.00013448    0.00078109    0.00013218
     atom    4 type  2   force =    -0.00033084   -0.00005822    0.00033764
     atom    5 type  2   force =     0.00022762   -0.00081103    0.00026284
     atom    6 type  2   force =     0.00007755    0.00032928   -0.00081709
     atom    7 type  2   force =    -0.00022775    0.00049024    0.00003340

     Total force =     0.001804     Total SCF correction =     0.000192
     SCF correction compared to forces is large: reduce conv_thr to get better values


     Computing stress (Cartesian axis) and pressure

     stres_hub    :    397.48s CPU     59.88s WALL (      10 calls)
     dprojdepsilo :    330.70s CPU     49.61s WALL (    3240 calls)
     dprojdeps1   :     31.70s CPU      5.27s WALL (    3240 calls)
     dprojdeps2   :    194.12s CPU     27.93s WALL (    3240 calls)
     dprojdeps3   :    104.75s CPU     16.39s WALL (    3240 calls)
          total   stress  (Ry/bohr**3)                   (kbar)     P=        0.13
   0.00000878  -0.00000121   0.00000109            1.29       -0.18        0.16
  -0.00000121   0.00000301  -0.00000016           -0.18        0.44       -0.02
   0.00000109  -0.00000016  -0.00000915            0.16       -0.02       -1.35

     Energy error            =      1.2E-05 Ry
     Gradient error          =      8.2E-04 Ry/Bohr
     Cell gradient error     =      1.3E+00 kbar

     number of scf cycles    =  10
     number of bfgs steps    =   9

     enthalpy           old  =    -520.6207582434 Ry
     enthalpy           new  =    -520.6207698940 Ry

     CASE: enthalpy          _new < enthalpy          _old

     new trust radius        =       0.0037177593 bohr
     new conv_thr            =       0.0000000100 Ry

     new unit-cell volume =    487.52756 a.u.^3 (    72.24413 Ang^3 )
     density =      3.85102 g/cm^3

CELL_PARAMETERS (angstrom)
   2.960567634  -0.003921904   0.002425012
   1.493492438   6.181427245  -0.013766033
   2.962193882   3.177684149   3.941102257

ATOMIC_POSITIONS (angstrom)
Mg               3.4377542384        4.7872027029        1.4529062629
Mg               3.4334501186        1.1000025916        0.3375688738
Mn               4.9144884947        2.3216188927        2.5355358204
O                3.4461361396        6.8935827213        1.8154014388
O                4.9160857258        4.2994317402        2.8628262620
O                3.4358433357        2.7861661783        1.3642616710
O                4.9256465294        8.3960087454        3.8957461159



     Writing config-only to output data dir .\out\\qgan.save\ :
     XML data file
     NEW-OLD atomic charge density approx. for the potential
     New effective cutoffs (rho, wfc):  493.89   61.77

     Check: negative core charge=   -0.000002

     Atomic wfc used for Hubbard projectors are orthogonalized


     total cpu time spent up to now is      563.2 secs

     Self-consistent Calculation

     iteration #  1     ecut=    60.00 Ry     beta= 0.70
     Davidson diagonalization with overlap
     ethr =  1.00E-06,  avg # of iterations =  5.0

     =================== HUBBARD OCCUPATIONS ===================
     ------------------------ ATOM    3 ------------------------
     Tr[ns(  3)] =   5.23710
     eigenvalues:
       0.219  0.312  0.399  0.713  0.975
     eigenvectors (columns):
       0.539  0.001 -0.207  0.001 -0.816
      -0.001 -0.964  0.002  0.265 -0.002
      -0.803  0.001 -0.418 -0.002 -0.424
       0.254 -0.003 -0.884 -0.001  0.392
       0.001 -0.265  0.002 -0.964 -0.001
     occupation matrix ns (before diag.):
       0.731  0.001  0.277 -0.209  0.000
       0.001  0.340  0.000 -0.001 -0.103
       0.277  0.000  0.387 -0.059  0.001
      -0.209 -0.001 -0.059  0.476 -0.000
       0.000 -0.103  0.001 -0.000  0.685

     Number of occupied Hubbard levels =    5.2371

     Threshold (ethr) on eigenvalues was too large:
     Diagonalizing with lowered threshold

     Davidson diagonalization with overlap
     ethr =  1.08E-08,  avg # of iterations =  5.1

     total cpu time spent up to now is      570.5 secs

     total energy              =    -520.62077690 Ry
     estimated scf accuracy    <       0.00000518 Ry

     iteration #  2     ecut=    60.00 Ry     beta= 0.70
     Davidson diagonalization with overlap
     ethr =  1.21E-08,  avg # of iterations =  2.2

     total cpu time spent up to now is      573.3 secs

     total energy              =    -520.62077553 Ry
     estimated scf accuracy    <       0.00001090 Ry

     iteration #  3     ecut=    60.00 Ry     beta= 0.70
     Davidson diagonalization with overlap
     ethr =  1.21E-08,  avg # of iterations =  2.0

     total cpu time spent up to now is      575.8 secs

     total energy              =    -520.62077667 Ry
     estimated scf accuracy    <       0.00001350 Ry

     iteration #  4     ecut=    60.00 Ry     beta= 0.70
     Davidson diagonalization with overlap
     ethr =  1.21E-08,  avg # of iterations =  2.0

     total cpu time spent up to now is      578.2 secs

     total energy              =    -520.62077826 Ry
     estimated scf accuracy    <       0.00000161 Ry

     iteration #  5     ecut=    60.00 Ry     beta= 0.70
     Davidson diagonalization with overlap
     ethr =  3.74E-09,  avg # of iterations =  1.5

     total cpu time spent up to now is      580.5 secs

     total energy              =    -520.62077852 Ry
     estimated scf accuracy    <       0.00000011 Ry

     iteration #  6     ecut=    60.00 Ry     beta= 0.70
     Davidson diagonalization with overlap
     ethr =  2.61E-10,  avg # of iterations =  7.9

     total cpu time spent up to now is      584.6 secs

     total energy              =    -520.62077864 Ry
     estimated scf accuracy    <       0.00000009 Ry

     iteration #  7     ecut=    60.00 Ry     beta= 0.70
     Davidson diagonalization with overlap
     ethr =  2.09E-10,  avg # of iterations =  1.9

     total cpu time spent up to now is      587.1 secs

     total energy              =    -520.62077867 Ry
     estimated scf accuracy    <       0.00000002 Ry

     iteration #  8     ecut=    60.00 Ry     beta= 0.70
     Davidson diagonalization with overlap
     ethr =  5.37E-11,  avg # of iterations =  7.2

     total cpu time spent up to now is      590.5 secs

     total energy              =    -520.62077869 Ry
     estimated scf accuracy    <       0.00000002 Ry

     iteration #  9     ecut=    60.00 Ry     beta= 0.70
     Davidson diagonalization with overlap
     ethr =  4.34E-11,  avg # of iterations =  1.7

     total cpu time spent up to now is      592.8 secs

     total energy              =    -520.62077867 Ry
     estimated scf accuracy    <       0.00000001 Ry

     iteration # 10     ecut=    60.00 Ry     beta= 0.70
     Davidson diagonalization with overlap
     ethr =  3.12E-11,  avg # of iterations =  5.9

     total cpu time spent up to now is      596.2 secs

     End of self-consistent calculation

     =================== HUBBARD OCCUPATIONS ===================
     ------------------------ ATOM    3 ------------------------
     Tr[ns(  3)] =   5.23657
     eigenvalues:
       0.219  0.312  0.399  0.713  0.975
     eigenvectors (columns):
       0.538 -0.001 -0.207  0.001 -0.817
      -0.001  0.964  0.002  0.265 -0.002
      -0.804 -0.001 -0.418 -0.001 -0.423
       0.254  0.003 -0.884 -0.001  0.392
       0.001  0.265  0.002 -0.964 -0.001
     occupation matrix ns (before diag.):
       0.732  0.001  0.277 -0.209  0.000
       0.001  0.340  0.000 -0.001 -0.102
       0.277  0.000  0.386 -0.059  0.001
      -0.209 -0.001 -0.059  0.476  0.000
       0.000 -0.102  0.001  0.000  0.685

     Number of occupied Hubbard levels =    5.2366

          k = 0.0000 0.0000 0.0000 (  3895 PWs)   bands (ev):

   -72.8846 -42.3116 -41.5317 -40.9228 -11.8804 -10.5533 -10.2818 -10.0505
     0.8161   1.5019   2.2363   2.7018   3.0726   3.9255   4.1043   4.3693
     4.6217   5.4182   5.6282   5.6822   6.0636   7.1423   8.0040  10.0779
    10.3463  11.7321

          k =-0.0002 0.0005 0.1874 (  3893 PWs)   bands (ev):

   -72.8845 -42.3117 -41.5317 -40.9228 -11.6845 -10.7086 -10.3505 -10.0893
     1.0122   1.7993   1.9847   3.0745   3.0821   3.8872   4.0247   4.4805
     4.5973   4.9605   5.5765   5.6071   5.7663   7.0997   8.1057   9.7885
    10.3883  12.8481

          k = 0.0003-0.0009-0.3748 (  3894 PWs)   bands (ev):

   -72.8844 -42.3118 -41.5318 -40.9228 -11.3555 -10.9826 -10.4207 -10.1427
     1.2713   1.8251   2.5162   3.0189   3.0706   3.4883   3.8807   4.5453
     4.5707   4.8368   5.4835   5.5278   5.6350   7.0562   8.1882   9.5476
    10.4309  14.4591

          k = 0.0002 0.1194-0.0964 (  3888 PWs)   bands (ev):

   -72.8845 -42.3117 -41.5317 -40.9228 -11.7755 -10.5794 -10.4189 -10.0336
     1.0397   1.5184   2.1944   2.7989   3.1077   3.9466   4.1145   4.3163
     4.6889   5.0212   5.4908   5.6341   6.0684   7.1666   7.9967  10.1415
    10.3865  12.5218

          k = 0.0001 0.1198 0.0910 (  3903 PWs)   bands (ev):

   -72.8846 -42.3117 -41.5317 -40.9228 -11.7285 -10.7902 -10.2437 -10.0443
     0.9489   1.7983   2.1064   2.8963   3.0401   3.8082   3.9258   4.4856
     4.6169   5.2237   5.5854   5.5887   5.8405   7.1368   8.1014   9.7933
    10.3473  12.4967

          k = 0.0005 0.1185-0.4712 (  3923 PWs)   bands (ev):

   -72.8845 -42.3118 -41.5317 -40.9228 -11.4049 -11.0624 -10.3212 -10.0856
     1.3069   1.6523   2.4282   3.0389   3.1599   3.5118   3.9080   4.3373
     4.5889   5.0794   5.4418   5.5048   5.6800   7.0926   8.2042   9.5566
    10.3899  13.8615

          k = 0.0004 0.1189-0.2838 (  3906 PWs)   bands (ev):

   -72.8844 -42.3117 -41.5318 -40.9228 -11.5320 -10.7877 -10.4810 -10.0741
     1.2360   1.7920   2.2203   2.9723   3.1074   3.8330   3.9048   4.4353
     4.5031   4.9012   5.4506   5.5545   5.7741   7.1267   8.1254   9.8657
    10.4282  14.0924

          k =-0.0005-0.2387 0.1928 (  3908 PWs)   bands (ev):

   -72.8845 -42.3117 -41.5318 -40.9228 -11.6417 -10.6755 -10.5106 -10.0200
     1.0204   1.8596   2.4004   2.8257   3.1452   3.6056   3.9713   4.2582
     4.5774   4.9942   5.4804   5.5854   6.0703   7.1909   7.9879  10.2093
    10.4260  13.8349

          k =-0.0006-0.2383 0.3802 (  3905 PWs)   bands (ev):

   -72.8845 -42.3117 -41.5317 -40.9228 -11.5897 -10.8603 -10.3677 -10.0316
     1.3353   1.7522   2.0037   2.9107   3.0709   3.8068   3.9475   4.4390
     4.7390   4.8827   5.4354   5.5367   5.8088   7.1621   8.1309   9.8756
    10.3874  13.4214

          k =-0.0002-0.2396-0.1819 (  3896 PWs)   bands (ev):

   -72.8846 -42.3118 -41.5317 -40.9228 -11.4465 -11.1322 -10.2264 -10.0419
     1.1531   1.8250   2.3118   3.0090   3.0388   3.7147   3.9370   4.1014
     4.5999   5.1835   5.4879   5.5585   5.7308   7.1275   8.1703   9.5450
    10.3488  13.7673

          k = 0.2498-0.0607-0.1389 (  3914 PWs)   bands (ev):

   -72.8816 -42.3086 -41.5261 -40.9621 -11.3225 -10.5808 -10.2118 -10.0313
     1.4040   1.6788   2.1277   2.4357   2.7786   3.0191   3.8416   4.0121
     4.2860   5.0124   5.3004   5.5194   6.1200   6.9841   8.0265   9.6954
    10.1075  13.9396

          k = 0.2497-0.0602 0.0485 (  3892 PWs)   bands (ev):

   -72.8816 -42.3086 -41.5261 -40.9621 -11.4208 -10.4538 -10.2580  -9.9979
     1.4224   1.8171   2.0482   2.4461   2.8274   2.8676   3.7139   3.9963
     4.2926   5.0298   5.3845   5.5695   6.0467   7.0736   7.9547   9.7615
    10.0834  13.5898

          k = 0.2501-0.0616-0.5136 (  3918 PWs)   bands (ev):

   -72.8816 -42.3086 -41.5261 -40.9621 -11.2268 -10.5503 -10.3430 -10.0510
     1.3247   1.6865   2.2017   2.5559   2.6752   3.0115   4.0046   4.1270
     4.3910   4.9243   5.0555   5.4866   6.1628   6.9738   8.0227   9.6507
    10.0380  14.7122

          k = 0.2500-0.0611-0.3262 (  3915 PWs)   bands (ev):

   -72.8816 -42.3087 -41.5262 -40.9621 -11.0427 -10.7619 -10.2932 -10.0900
     1.3371   1.6540   2.0953   2.4482   2.7343   3.3599   3.9229   4.2075
     4.3901   4.8565   5.0007   5.4722   6.1844   6.8974   8.0901   9.8124
     9.8649  15.1018

          k = 0.2501 0.0587-0.2353 (  3915 PWs)   bands (ev):

   -72.8816 -42.3086 -41.5261 -40.9621 -11.2273 -10.5502 -10.3423 -10.0512
     1.3249   1.6868   2.2021   2.5538   2.6757   3.0113   4.0029   4.1269
     4.3921   4.9262   5.0543   5.4869   6.1630   6.9750   8.0222   9.6515
    10.0368  14.7101

          k = 0.2499 0.0591-0.0479 (  3895 PWs)   bands (ev):

   -72.8816 -42.3086 -41.5261 -40.9621 -11.4212 -10.4537 -10.2575  -9.9979
     1.4224   1.8167   2.0484   2.4455   2.8247   2.8703   3.7137   3.9954
     4.2940   5.0279   5.3869   5.5699   6.0458   7.0740   7.9547   9.7614
    10.0834  13.5887

          k = 0.2504 0.0578-0.6101 (  3909 PWs)   bands (ev):

   -72.8816 -42.3086 -41.5261 -40.9621 -11.3225 -10.5803 -10.2122 -10.0313
     1.4031   1.6795   2.1274   2.4348   2.7814   3.0174   3.8421   4.0128
     4.2864   5.0113   5.2993   5.5204   6.1207   6.9840   8.0266   9.6940
    10.1081  13.9415

          k = 0.2502 0.0582-0.4227 (  3913 PWs)   bands (ev):

   -72.8816 -42.3087 -41.5261 -40.9621 -11.0427 -10.7614 -10.2935 -10.0903
     1.3372   1.6537   2.0950   2.4481   2.7343   3.3612   3.9245   4.2068
     4.3885   4.8560   5.0012   5.4728   6.1849   6.8977   8.0896   9.8127
     9.8637  15.1027

          k = 0.2494-0.2994 0.0540 (  3925 PWs)   bands (ev):

   -72.8816 -42.3086 -41.5262 -40.9621 -11.1565 -10.6485 -10.3410 -10.0362
     1.4724   1.8465   2.1092   2.4686   2.6752   3.1225   3.7099   4.0413
     4.3822   4.8977   5.1143   5.5410   6.1558   6.9851   8.0363   9.6662
    10.1198  14.7160

          k = 0.2492-0.2989 0.2414 (  3913 PWs)   bands (ev):

   -72.8816 -42.3086 -41.5261 -40.9621 -11.2881 -10.4718 -10.4037 -10.0013
     1.3872   1.9737   2.2630   2.5115   2.6658   2.8934   3.5536   3.9539
     4.4815   4.9116   5.1609   5.5990   6.1158   7.0896   7.9416   9.7101
    10.0854  14.4996

          k = 0.2497-0.3003-0.3208 (  3910 PWs)   bands (ev):

   -72.8816 -42.3086 -41.5261 -40.9621 -11.2706 -10.6433 -10.2235 -10.0199
     1.6114   1.7858   1.9371   2.5644   2.7906   3.0519   3.5729   3.8902
     4.1570   5.0744   5.3516   5.5794   6.1097   6.9883   8.0372   9.7225
    10.1913  13.8677

          k = 0.2495-0.2999-0.1334 (  3919 PWs)   bands (ev):

   -72.8816 -42.3087 -41.5261 -40.9621 -11.0629 -10.8657 -10.1944 -10.0503
     1.5712   1.7201   1.9734   2.5681   2.7556   3.1058   3.5166   4.1751
     4.2957   4.8425   5.3189   5.5490   6.1568   6.8975   8.1020   9.9106
     9.9484  14.6194

          k = 0.2496-0.1800-0.0424 (  3912 PWs)   bands (ev):

   -72.8816 -42.3086 -41.5261 -40.9621 -11.2699 -10.6438 -10.2239 -10.0200
     1.6117   1.7862   1.9367   2.5670   2.7898   3.0495   3.5729   3.8907
     4.1581   5.0752   5.3489   5.5800   6.1102   6.9884   8.0366   9.7236
    10.1900  13.8677

          k = 0.2494-0.1796 0.1450 (  3918 PWs)   bands (ev):

   -72.8816 -42.3086 -41.5261 -40.9621 -11.2875 -10.4721 -10.4041 -10.0013
     1.3869   1.9735   2.2637   2.5137   2.6655   2.8928   3.5525   3.9543
     4.4810   4.9108   5.1620   5.5985   6.1159   7.0891   7.9417   9.7098
    10.0856  14.5018

          k = 0.2499-0.1809-0.4172 (  3924 PWs)   bands (ev):

   -72.8816 -42.3086 -41.5262 -40.9621 -11.1567 -10.6487 -10.3407 -10.0359
     1.4718   1.8471   2.1089   2.4700   2.6738   3.1238   3.7075   4.0427
     4.3817   4.8986   5.1145   5.5404   6.1549   6.9841   8.0371   9.6657
    10.1216  14.7143

          k = 0.2497-0.1805-0.2298 (  3912 PWs)   bands (ev):

   -72.8816 -42.3087 -41.5261 -40.9621 -11.0629 -10.8662 -10.1940 -10.0502
     1.5716   1.7194   1.9741   2.5690   2.7551   3.1055   3.5149   4.1763
     4.2955   4.8419   5.3207   5.5479   6.1562   6.8971   8.1024   9.9101
     9.9499  14.6191

          k =-0.4996 0.1213 0.2777 (  3922 PWs)   bands (ev):

   -72.8793 -42.3056 -41.5205 -41.0010 -10.6349 -10.4381 -10.2803 -10.0883
     0.7145   1.2107   1.8421   2.2763   2.5933   3.4971   3.8950   4.2677
     4.5420   4.7674   4.8140   5.3338   5.9841   6.8010   7.9336  10.0010
    10.1103  15.3040

          k =-0.4998 0.1218 0.4651 (  3915 PWs)   bands (ev):

   -72.8792 -42.3056 -41.5205 -41.0010 -10.6791 -10.4549 -10.2658 -10.0480
     0.9174   1.2295   1.9728   2.3805   2.6009   3.4244   3.6784   4.2294
     4.4060   4.5209   4.9194   5.1703   5.9808   6.9685   7.9184   9.8124
    10.0731  15.8404

          k =-0.4993 0.1204-0.0971 (  3934 PWs)   bands (ev):

   -72.8792 -42.3056 -41.5205 -41.0010 -10.7161 -10.4747 -10.2497 -10.0135
     1.0796   1.3431   2.2120   2.4513   2.6565   3.1087   3.3958   4.1576
     4.3527   4.4919   4.9050   5.0405   5.9716   7.0968   7.9069   9.5977
    10.0881  16.0909

          k =-0.4994 0.2407 0.1813 (  3931 PWs)   bands (ev):

   -72.8793 -42.3056 -41.5205 -41.0010 -10.6348 -10.4385 -10.2797 -10.0886
     0.7807   1.1118   1.8492   2.2753   2.5789   3.6500   3.8623   4.2004
     4.5359   4.7548   4.8251   5.3287   5.9828   6.8043   7.9278  10.0147
    10.0863  15.6090

          k =-0.4996 0.2412 0.3687 (  3926 PWs)   bands (ev):

   -72.8792 -42.3056 -41.5205 -41.0010 -10.6788 -10.4575 -10.2632 -10.0482
     0.9024   1.2664   1.9665   2.2375   2.8025   3.3435   3.6752   4.2136
     4.4105   4.5215   4.9317   5.1786   5.9790   6.9736   7.9179   9.8009
    10.0863  15.6352

          k =-0.4991 0.2398-0.1935 (  3912 PWs)   bands (ev):

   -72.8792 -42.3056 -41.5205 -41.0010 -10.7184 -10.4691 -10.2547 -10.0116
     1.0947   1.3115   2.1805   2.5382   2.6957   3.0056   3.4672   4.1325
     4.2886   4.4858   4.8836   5.1038   5.9759   7.1017   7.9071   9.6070
    10.0802  16.0471

          k =-0.4993 0.2402-0.0061 (  3926 PWs)   bands (ev):

   -72.8792 -42.3056 -41.5205 -41.0010 -10.6785 -10.4571 -10.2637 -10.0486
     0.9023   1.2662   1.9647   2.2375   2.8023   3.3440   3.6758   4.2152
     4.4122   4.5214   4.9315   5.1777   5.9792   6.9731   7.9174   9.8009
    10.0865  15.6310

          k =-0.5001-0.1174 0.4706 (  3926 PWs)   bands (ev):

   -72.8793 -42.3056 -41.5205 -41.0010 -10.6351 -10.4376 -10.2806 -10.0882
     0.7157   1.2099   1.8410   2.2742   2.5899   3.4982   3.8989   4.2698
     4.5441   4.7666   4.8143   5.3333   5.9843   6.8012   7.9325   9.9987
    10.1115  15.2998

          k =-0.5003-0.1169 0.6579 (  3915 PWs)   bands (ev):

   -72.8792 -42.3056 -41.5205 -41.0010 -10.6796 -10.4549 -10.2656 -10.0476
     0.9190   1.2288   1.9722   2.3791   2.5981   3.4249   3.6795   4.2302
     4.4056   4.5227   4.9194   5.1708   5.9807   6.9692   7.9178   9.8111
    10.0733  15.8432

          k =-0.4998-0.1183 0.0958 (  3928 PWs)   bands (ev):

   -72.8792 -42.3056 -41.5205 -41.0010 -10.7169 -10.4751 -10.2491 -10.0128
     1.0819   1.3427   2.2116   2.4500   2.6541   3.1092   3.3963   4.1563
     4.3527   4.4921   4.9068   5.0409   5.9714   7.0980   7.9068   9.5960
    10.0882  16.0935

     the Fermi energy is     7.0496 ev

!    total energy              =    -520.62077872 Ry
     total all-electron energy =     -3720.874037 Ry
     estimated scf accuracy    <          8.4E-09 Ry
     smearing contrib. (-TS)   =      -0.00493410 Ry
     internal energy E=F+TS    =    -520.61584462 Ry

     The total energy is F=E-TS. E is the sum of the following terms:
     one-electron contribution =    -240.58495531 Ry
     hartree contribution      =     145.37102999 Ry
     xc contribution           =     -61.25083210 Ry
     ewald contribution        =    -185.65502460 Ry
     Hubbard energy            =       0.24481595 Ry
     one-center paw contrib.   =    -178.74087855 Ry

     convergence has been achieved in  10 iterations
     force_hub    :    158.59s CPU     25.67s WALL (      11 calls)
     dndtau       :    139.66s CPU     22.69s WALL (    8316 calls)
     dprojdtau    :     20.11s CPU      3.37s WALL (    8316 calls)
     calc_doverla :     76.83s CPU     12.19s WALL (    8316 calls)
     matel_dSdtau :    103.39s CPU     16.42s WALL (   16632 calls)

     Forces acting on atoms (cartesian axes, Ry/au):

     atom    1 type  1   force =     0.00029172   -0.00038348    0.00018390
     atom    2 type  1   force =    -0.00001690    0.00000199   -0.00015175
     atom    3 type  3   force =    -0.00005355    0.00071148   -0.00041268
     atom    4 type  2   force =    -0.00027475    0.00005698    0.00029682
     atom    5 type  2   force =     0.00019573   -0.00026023    0.00082084
     atom    6 type  2   force =     0.00000905   -0.00031583   -0.00090149
     atom    7 type  2   force =    -0.00015130    0.00018909    0.00016436

     Total force =     0.001707     Total SCF correction =     0.000073


     Computing stress (Cartesian axis) and pressure

     stres_hub    :    437.86s CPU     65.73s WALL (      11 calls)
     dprojdepsilo :    364.39s CPU     54.43s WALL (    3564 calls)
     dprojdeps1   :     35.12s CPU      5.79s WALL (    3564 calls)
     dprojdeps2   :    212.33s CPU     30.65s WALL (    3564 calls)
     dprojdeps3   :    116.81s CPU     17.97s WALL (    3564 calls)
          total   stress  (Ry/bohr**3)                   (kbar)     P=        0.39
   0.00000644  -0.00000111   0.00000060            0.95       -0.16        0.09
  -0.00000111   0.00000556  -0.00000077           -0.16        0.82       -0.11
   0.00000060  -0.00000077  -0.00000407            0.09       -0.11       -0.60

     Energy error            =      8.8E-06 Ry
     Gradient error          =      9.0E-04 Ry/Bohr
     Cell gradient error     =      9.5E-01 kbar

     number of scf cycles    =  11
     number of bfgs steps    =  10

     enthalpy           old  =    -520.6207698940 Ry
     enthalpy           new  =    -520.6207787240 Ry

     CASE: enthalpy          _new < enthalpy          _old

     new trust radius        =       0.0027901116 bohr
     new conv_thr            =       0.0000000100 Ry

     new unit-cell volume =    487.60170 a.u.^3 (    72.25512 Ang^3 )
     density =      3.85043 g/cm^3

CELL_PARAMETERS (angstrom)
   2.961718789  -0.004296154   0.002777510
   1.493281119   6.182904135  -0.013380830
   2.963414736   3.178309966   3.939566024

ATOMIC_POSITIONS (angstrom)
Mg               3.4395201623        4.7879772101        1.4524218570
Mg               3.4346653186        1.0990676479        0.3382949114
Mn               4.9161031523        2.3225221266        2.5346888510
O                3.4461735296        6.8953091759        1.8162555352
O                4.9182058129        4.2986828280        2.8618331561
O                3.4371369457        2.7867356093        1.3628684443
O                4.9264914176        8.3988834309        3.8950662008



     Writing config-only to output data dir .\out\\qgan.save\ :
     XML data file
     NEW-OLD atomic charge density approx. for the potential
     New effective cutoffs (rho, wfc):  494.28   61.81

     Check: negative core charge=   -0.000002

     Atomic wfc used for Hubbard projectors are orthogonalized


     total cpu time spent up to now is      607.7 secs

     Self-consistent Calculation

     iteration #  1     ecut=    60.00 Ry     beta= 0.70
     Davidson diagonalization with overlap
     ethr =  1.00E-06,  avg # of iterations =  5.2

     =================== HUBBARD OCCUPATIONS ===================
     ------------------------ ATOM    3 ------------------------
     Tr[ns(  3)] =   5.23679
     eigenvalues:
       0.219  0.312  0.399  0.713  0.976
     eigenvectors (columns):
       0.538 -0.001 -0.208  0.001 -0.817
      -0.001  0.964  0.002  0.265 -0.002
      -0.804 -0.001 -0.418 -0.001 -0.423
       0.254  0.003 -0.885 -0.002  0.392
       0.001  0.265  0.002 -0.964 -0.002
     occupation matrix ns (before diag.):
       0.732  0.001  0.277 -0.209  0.000
       0.001  0.340  0.000 -0.001 -0.102
       0.277  0.000  0.386 -0.059  0.001
      -0.209 -0.001 -0.059  0.476  0.000
       0.000 -0.102  0.001  0.000  0.685

     Number of occupied Hubbard levels =    5.2368

     Threshold (ethr) on eigenvalues was too large:
     Diagonalizing with lowered threshold

     Davidson diagonalization with overlap
     ethr =  9.81E-09,  avg # of iterations =  5.7

     total cpu time spent up to now is      615.6 secs

     total energy              =    -520.62078352 Ry
     estimated scf accuracy    <       0.00000500 Ry

     iteration #  2     ecut=    60.00 Ry     beta= 0.70
     Davidson diagonalization with overlap
     ethr =  1.16E-08,  avg # of iterations =  2.3

     total cpu time spent up to now is      618.2 secs

     total energy              =    -520.62078282 Ry
     estimated scf accuracy    <       0.00000666 Ry

     iteration #  3     ecut=    60.00 Ry     beta= 0.70
     Davidson diagonalization with overlap
     ethr =  1.16E-08,  avg # of iterations =  2.0

     total cpu time spent up to now is      620.6 secs

     total energy              =    -520.62078340 Ry
     estimated scf accuracy    <       0.00000948 Ry

     iteration #  4     ecut=    60.00 Ry     beta= 0.70
     Davidson diagonalization with overlap
     ethr =  1.16E-08,  avg # of iterations =  2.0

     total cpu time spent up to now is      623.2 secs

     total energy              =    -520.62078459 Ry
     estimated scf accuracy    <       0.00000298 Ry

     iteration #  5     ecut=    60.00 Ry     beta= 0.70
     Davidson diagonalization with overlap
     ethr =  6.94E-09,  avg # of iterations =  1.2

     total cpu time spent up to now is      626.1 secs

     total energy              =    -520.62078494 Ry
     estimated scf accuracy    <       0.00000018 Ry

     iteration #  6     ecut=    60.00 Ry     beta= 0.70
     Davidson diagonalization with overlap
     ethr =  4.07E-10,  avg # of iterations =  6.6

     total cpu time spent up to now is      629.8 secs

     total energy              =    -520.62078509 Ry
     estimated scf accuracy    <       0.00000006 Ry

     iteration #  7     ecut=    60.00 Ry     beta= 0.70
     Davidson diagonalization with overlap
     ethr =  1.43E-10,  avg # of iterations =  3.7

     total cpu time spent up to now is      632.7 secs

     total energy              =    -520.62078512 Ry
     estimated scf accuracy    <       0.00000003 Ry

     iteration #  8     ecut=    60.00 Ry     beta= 0.70
     Davidson diagonalization with overlap
     ethr =  7.86E-11,  avg # of iterations =  1.9

     total cpu time spent up to now is      635.2 secs

     total energy              =    -520.62078513 Ry
     estimated scf accuracy    <       0.00000002 Ry

     iteration #  9     ecut=    60.00 Ry     beta= 0.70
     Davidson diagonalization with overlap
     ethr =  4.17E-11,  avg # of iterations =  2.5

     total cpu time spent up to now is      637.8 secs

     total energy              =    -520.62078511 Ry
     estimated scf accuracy    <       0.00000001 Ry

     iteration # 10     ecut=    60.00 Ry     beta= 0.70
     Davidson diagonalization with overlap
     ethr =  3.25E-11,  avg # of iterations =  4.0

     total cpu time spent up to now is      640.8 secs

     End of self-consistent calculation

     =================== HUBBARD OCCUPATIONS ===================
     ------------------------ ATOM    3 ------------------------
     Tr[ns(  3)] =   5.23650
     eigenvalues:
       0.219  0.312  0.399  0.713  0.976
     eigenvectors (columns):
       0.537 -0.001 -0.208  0.001 -0.818
      -0.001  0.965  0.001  0.264 -0.002
      -0.805 -0.001 -0.418 -0.001 -0.422
       0.254  0.003 -0.885 -0.002  0.391
       0.000  0.264  0.002 -0.965 -0.002
     occupation matrix ns (before diag.):
       0.733  0.001  0.277 -0.209  0.001
       0.001  0.340  0.000 -0.001 -0.102
       0.277  0.000  0.385 -0.058  0.001
      -0.209 -0.001 -0.058  0.476  0.000
       0.001 -0.102  0.001  0.000  0.685

     Number of occupied Hubbard levels =    5.2365

          k = 0.0000 0.0000 0.0000 (  3895 PWs)   bands (ev):

   -72.8870 -42.3137 -41.5345 -40.9251 -11.8811 -10.5533 -10.2828 -10.0527
     0.8161   1.4999   2.2378   2.7005   3.0721   3.9200   4.1020   4.3654
     4.6221   5.4178   5.6256   5.6781   6.0620   7.1400   8.0006  10.0766
    10.3418  11.7297

          k =-0.0002 0.0004 0.1875 (  3893 PWs)   bands (ev):

   -72.8869 -42.3138 -41.5345 -40.9251 -11.6848 -10.7087 -10.3525 -10.0910
     1.0126   1.7995   1.9828   3.0740   3.0815   3.8817   4.0231   4.4768
     4.5972   4.9608   5.5732   5.6027   5.7637   7.0974   8.1028   9.7869
    10.3837  12.8460

          k = 0.0004-0.0009-0.3750 (  3894 PWs)   bands (ev):

   -72.8868 -42.3138 -41.5346 -40.9251 -11.3548 -10.9835 -10.4234 -10.1440
     1.2711   1.8262   2.5173   3.0175   3.0700   3.4849   3.8754   4.5463
     4.5672   4.8342   5.4816   5.5229   5.6320   7.0540   8.1855   9.5455
    10.4263  14.4581

          k = 0.0003 0.1193-0.0965 (  3888 PWs)   bands (ev):

   -72.8870 -42.3137 -41.5345 -40.9251 -11.7760 -10.5797 -10.4199 -10.0358
     1.0396   1.5175   2.1949   2.7968   3.1072   3.9409   4.1144   4.3124
     4.6888   5.0202   5.4884   5.6301   6.0658   7.1643   7.9936  10.1406
    10.3819  12.5193

          k = 0.0001 0.1198 0.0910 (  3903 PWs)   bands (ev):

   -72.8870 -42.3138 -41.5345 -40.9251 -11.7292 -10.7901 -10.2455 -10.0460
     0.9495   1.7974   2.1072   2.8944   3.0395   3.8071   3.9202   4.4819
     4.6150   5.2218   5.5833   5.5843   5.8397   7.1345   8.0985   9.7922
    10.3428  12.4944

          k = 0.0006 0.1184-0.4714 (  3923 PWs)   bands (ev):

   -72.8869 -42.3138 -41.5345 -40.9251 -11.4050 -11.0627 -10.3236 -10.0870
     1.3074   1.6530   2.4295   3.0383   3.1564   3.5104   3.9025   4.3343
     4.5854   5.0792   5.4401   5.4999   5.6773   7.0905   8.2017   9.5552
    10.3853  13.8583

          k = 0.0004 0.1189-0.2840 (  3906 PWs)   bands (ev):

   -72.8869 -42.3138 -41.5346 -40.9251 -11.5320 -10.7883 -10.4827 -10.0760
     1.2363   1.7913   2.2206   2.9710   3.1069   3.8320   3.8993   4.4317
     4.5030   4.8996   5.4489   5.5500   5.7706   7.1245   8.1227   9.8644
    10.4236  14.0903

          k =-0.0005-0.2387 0.1929 (  3908 PWs)   bands (ev):

   -72.8869 -42.3137 -41.5346 -40.9251 -11.6420 -10.6770 -10.5106 -10.0222
     1.0197   1.8605   2.4009   2.8225   3.1449   3.6045   3.9653   4.2546
     4.5784   4.9929   5.4785   5.5813   6.0670   7.1886   7.9850  10.2088
    10.4214  13.8322

          k =-0.0007-0.2382 0.3804 (  3905 PWs)   bands (ev):

   -72.8869 -42.3138 -41.5345 -40.9251 -11.5902 -10.8602 -10.3694 -10.0335
     1.3363   1.7510   2.0046   2.9083   3.0704   3.8066   3.9418   4.4354
     4.7357   4.8819   5.4340   5.5322   5.8064   7.1599   8.1284   9.8749
    10.3829  13.4187

          k =-0.0002-0.2396-0.1820 (  3896 PWs)   bands (ev):

   -72.8870 -42.3138 -41.5345 -40.9251 -11.4474 -11.1319 -10.2288 -10.0431
     1.1540   1.8260   2.3134   3.0084   3.0352   3.7123   3.9315   4.0981
     4.5964   5.1813   5.4831   5.5567   5.7304   7.1253   8.1677   9.5443
    10.3443  13.7629

          k = 0.2497-0.0606-0.1390 (  3914 PWs)   bands (ev):

   -72.8841 -42.3107 -41.5289 -40.9642 -11.3233 -10.5813 -10.2126 -10.0348
     1.4032   1.6770   2.1275   2.4343   2.7791   3.0163   3.8388   4.0109
     4.2835   5.0112   5.3002   5.5163   6.1181   6.9818   8.0235   9.6923
    10.1049  13.9376

          k = 0.2496-0.0602 0.0485 (  3892 PWs)   bands (ev):

   -72.8841 -42.3107 -41.5289 -40.9642 -11.4219 -10.4542 -10.2585 -10.0015
     1.4213   1.8161   2.0459   2.4457   2.8259   2.8675   3.7121   3.9926
     4.2911   5.0282   5.3851   5.5668   6.0444   7.0713   7.9515   9.7587
    10.0807  13.5868

          k = 0.2501-0.0615-0.5139 (  3918 PWs)   bands (ev):

   -72.8841 -42.3107 -41.5290 -40.9642 -11.2274 -10.5509 -10.3443 -10.0542
     1.3233   1.6849   2.2019   2.5548   2.6741   3.0096   4.0022   4.1240
     4.3905   4.9243   5.0540   5.4834   6.1606   6.9712   8.0197   9.6480
    10.0354  14.7089

          k = 0.2499-0.0611-0.3264 (  3915 PWs)   bands (ev):

   -72.8841 -42.3108 -41.5290 -40.9642 -11.0423 -10.7633 -10.2951 -10.0930
     1.3353   1.6527   2.0958   2.4475   2.7325   3.3592   3.9213   4.2044
     4.3879   4.8562   4.9989   5.4693   6.1824   6.8948   8.0874   9.8110
     9.8608  15.0984

          k = 0.2500 0.0587-0.2354 (  3915 PWs)   bands (ev):

   -72.8841 -42.3107 -41.5290 -40.9642 -11.2277 -10.5510 -10.3438 -10.0543
     1.3236   1.6851   2.2023   2.5532   2.6745   3.0097   4.0009   4.1239
     4.3913   4.9257   5.0532   5.4835   6.1607   6.9721   8.0193   9.6486
    10.0346  14.7075

          k = 0.2498 0.0592-0.0479 (  3895 PWs)   bands (ev):

   -72.8841 -42.3107 -41.5289 -40.9642 -11.4222 -10.4541 -10.2582 -10.0015
     1.4214   1.8158   2.0460   2.4454   2.8239   2.8694   3.7120   3.9919
     4.2920   5.0269   5.3868   5.5671   6.0439   7.0716   7.9514   9.7587
    10.0807  13.5862

          k = 0.2504 0.0578-0.6104 (  3909 PWs)   bands (ev):

   -72.8841 -42.3107 -41.5289 -40.9642 -11.3234 -10.5808 -10.2129 -10.0348
     1.4025   1.6774   2.1272   2.4337   2.7812   3.0149   3.8392   4.0115
     4.2837   5.0105   5.2994   5.5171   6.1186   6.9816   8.0235   9.6914
    10.1053  13.9388

          k = 0.2502 0.0583-0.4229 (  3913 PWs)   bands (ev):

   -72.8841 -42.3108 -41.5290 -40.9642 -11.0423 -10.7630 -10.2953 -10.0931
     1.3353   1.6525   2.0956   2.4476   2.7324   3.3600   3.9226   4.2038
     4.3869   4.8559   4.9991   5.4698   6.1827   6.8950   8.0870   9.8113
     9.8600  15.0989

          k = 0.2492-0.2993 0.0540 (  3925 PWs)   bands (ev):

   -72.8841 -42.3107 -41.5290 -40.9642 -11.1570 -10.6493 -10.3423 -10.0392
     1.4709   1.8453   2.1099   2.4669   2.6741   3.1212   3.7075   4.0392
     4.3806   4.8969   5.1123   5.5377   6.1534   6.9825   8.0337   9.6636
    10.1180  14.7123

          k = 0.2490-0.2988 0.2415 (  3913 PWs)   bands (ev):

   -72.8841 -42.3107 -41.5290 -40.9642 -11.2888 -10.4726 -10.4047 -10.0045
     1.3855   1.9734   2.2631   2.5102   2.6651   2.8913   3.5507   3.9511
     4.4812   4.9109   5.1594   5.5957   6.1135   7.0870   7.9387   9.7071
    10.0837  14.4968

          k = 0.2496-0.3002-0.3210 (  3910 PWs)   bands (ev):

   -72.8841 -42.3107 -41.5289 -40.9642 -11.2716 -10.6437 -10.2246 -10.0232
     1.6106   1.7850   1.9358   2.5650   2.7891   3.0495   3.5703   3.8888
     4.1545   5.0723   5.3514   5.5764   6.1079   6.9860   8.0343   9.7200
    10.1887  13.8653

          k = 0.2494-0.2997-0.1335 (  3919 PWs)   bands (ev):

   -72.8841 -42.3108 -41.5289 -40.9642 -11.0635 -10.8666 -10.1955 -10.0534
     1.5704   1.7185   1.9737   2.5677   2.7543   3.1043   3.5135   4.1719
     4.2932   4.8418   5.3183   5.5456   6.1549   6.8951   8.0995   9.9091
     9.9451  14.6160

          k = 0.2495-0.1800-0.0425 (  3912 PWs)   bands (ev):

   -72.8841 -42.3107 -41.5289 -40.9642 -11.2710 -10.6441 -10.2248 -10.0233
     1.6109   1.7852   1.9357   2.5668   2.7884   3.0478   3.5703   3.8890
     4.1554   5.0725   5.3496   5.5768   6.1081   6.9862   8.0339   9.7208
    10.1879  13.8652

          k = 0.2493-0.1795 0.1450 (  3918 PWs)   bands (ev):

   -72.8841 -42.3107 -41.5290 -40.9642 -11.2884 -10.4729 -10.4049 -10.0045
     1.3852   1.9732   2.2634   2.5119   2.6648   2.8909   3.5499   3.9515
     4.4809   4.9103   5.1602   5.5953   6.1136   7.0866   7.9388   9.7070
    10.0838  14.4982

          k = 0.2498-0.1808-0.4175 (  3924 PWs)   bands (ev):

   -72.8841 -42.3107 -41.5290 -40.9642 -11.1572 -10.6494 -10.3422 -10.0390
     1.4703   1.8457   2.1097   2.4679   2.6732   3.1221   3.7059   4.0403
     4.3801   4.8976   5.1127   5.5373   6.1528   6.9817   8.0343   9.6632
    10.1193  14.7115

          k = 0.2496-0.1804-0.2300 (  3912 PWs)   bands (ev):

   -72.8841 -42.3108 -41.5289 -40.9642 -11.0634 -10.8670 -10.1953 -10.0533
     1.5707   1.7181   1.9742   2.5682   2.7539   3.1042   3.5123   4.1729
     4.2929   4.8415   5.3196   5.5448   6.1545   6.8948   8.0998   9.9087
     9.9461  14.6158

          k =-0.4995 0.1212 0.2779 (  3922 PWs)   bands (ev):

   -72.8817 -42.3077 -41.5234 -41.0030 -10.6349 -10.4397 -10.2797 -10.0948
     0.7128   1.2100   1.8415   2.2746   2.5899   3.4978   3.8964   4.2675
     4.5384   4.7669   4.8123   5.3328   5.9795   6.7984   7.9313   9.9985
    10.1073  15.3013

          k =-0.4996 0.1217 0.4654 (  3915 PWs)   bands (ev):

   -72.8817 -42.3077 -41.5234 -41.0030 -10.6798 -10.4564 -10.2653 -10.0538
     0.9159   1.2291   1.9723   2.3783   2.5987   3.4240   3.6781   4.2287
     4.4045   4.5196   4.9185   5.1687   5.9761   6.9661   7.9159   9.8120
    10.0678  15.8386

          k =-0.4991 0.1203-0.0971 (  3934 PWs)   bands (ev):

   -72.8817 -42.3077 -41.5234 -41.0030 -10.7173 -10.4763 -10.2489 -10.0189
     1.0786   1.3425   2.2128   2.4496   2.6530   3.1070   3.3952   4.1579
     4.3503   4.4908   4.9036   5.0398   5.9670   7.0947   7.9041   9.5971
    10.0828  16.0891

          k =-0.4992 0.2406 0.1814 (  3931 PWs)   bands (ev):

   -72.8817 -42.3077 -41.5234 -41.0030 -10.6348 -10.4403 -10.2790 -10.0952
     0.7787   1.1113   1.8488   2.2735   2.5769   3.6505   3.8617   4.2004
     4.5324   4.7541   4.8234   5.3279   5.9781   6.8017   7.9256  10.0127
    10.0829  15.6066

          k =-0.4994 0.2410 0.3689 (  3926 PWs)   bands (ev):

   -72.8817 -42.3077 -41.5234 -41.0030 -10.6794 -10.4590 -10.2627 -10.0542
     0.9007   1.2658   1.9657   2.2357   2.8006   3.3430   3.6747   4.2134
     4.4089   4.5202   4.9304   5.1771   5.9744   6.9711   7.9153   9.8005
    10.0813  15.6326

          k =-0.4989 0.2397-0.1935 (  3912 PWs)   bands (ev):

   -72.8817 -42.3077 -41.5234 -41.0030 -10.7195 -10.4705 -10.2543 -10.0171
     1.0932   1.3112   2.1807   2.5366   2.6929   3.0043   3.4662   4.1332
     4.2861   4.4844   4.8828   5.1024   5.9713   7.0994   7.9043   9.6069
    10.0748  16.0449

          k =-0.4990 0.2401-0.0061 (  3926 PWs)   bands (ev):

   -72.8817 -42.3077 -41.5234 -41.0030 -10.6791 -10.4588 -10.2630 -10.0545
     0.9009   1.2656   1.9645   2.2358   2.8006   3.3434   3.6752   4.2140
     4.4102   4.5203   4.9301   5.1765   5.9746   6.9709   7.9150   9.8004
    10.0814  15.6293

          k =-0.5000-0.1174 0.4709 (  3926 PWs)   bands (ev):

   -72.8817 -42.3077 -41.5234 -41.0030 -10.6351 -10.4395 -10.2799 -10.0947
     0.7138   1.2092   1.8407   2.2734   2.5876   3.4987   3.8989   4.2687
     4.5397   4.7665   4.8123   5.3325   5.9796   6.7987   7.9305   9.9968
    10.1081  15.2980

          k =-0.5002-0.1170 0.6583 (  3915 PWs)   bands (ev):

   -72.8817 -42.3077 -41.5234 -41.0030 -10.6802 -10.4564 -10.2651 -10.0536
     0.9171   1.2286   1.9719   2.3773   2.5967   3.4245   3.6789   4.2290
     4.4044   4.5207   4.9185   5.1692   5.9761   6.9667   7.9154   9.8111
    10.0680  15.8402

          k =-0.4997-0.1183 0.0959 (  3928 PWs)   bands (ev):

   -72.8817 -42.3077 -41.5234 -41.0030 -10.7178 -10.4765 -10.2486 -10.0184
     1.0802   1.3422   2.2124   2.4488   2.6510   3.1075   3.3955   4.1571
     4.3501   4.4910   4.9048   5.0403   5.9669   7.0955   7.9040   9.5960
    10.0830  16.0915

     the Fermi energy is     7.0472 ev

!    total energy              =    -520.62078517 Ry
     total all-electron energy =     -3720.874044 Ry
     estimated scf accuracy    <          6.7E-09 Ry
     smearing contrib. (-TS)   =      -0.00493136 Ry
     internal energy E=F+TS    =    -520.61585382 Ry

     The total energy is F=E-TS. E is the sum of the following terms:
     one-electron contribution =    -240.58069509 Ry
     hartree contribution      =     145.36560671 Ry
     xc contribution           =     -61.25012647 Ry
     ewald contribution        =    -185.65461853 Ry
     Hubbard energy            =       0.24481574 Ry
     one-center paw contrib.   =    -178.74083619 Ry

     convergence has been achieved in  10 iterations
     force_hub    :    172.36s CPU     28.17s WALL (      12 calls)
     dndtau       :    152.12s CPU     24.93s WALL (    9072 calls)
     dprojdtau    :     21.42s CPU      3.72s WALL (    9072 calls)
     calc_doverla :     83.69s CPU     13.41s WALL (    9072 calls)
     matel_dSdtau :    112.89s CPU     18.00s WALL (   18144 calls)

     Forces acting on atoms (cartesian axes, Ry/au):

     atom    1 type  1   force =     0.00016723   -0.00039720    0.00011680
     atom    2 type  1   force =     0.00000047    0.00014890    0.00003054
     atom    3 type  3   force =    -0.00000759    0.00048437   -0.00064531
     atom    4 type  2   force =    -0.00021054    0.00025296    0.00029749
     atom    5 type  2   force =     0.00013959    0.00009701    0.00086570
     atom    6 type  2   force =    -0.00002548   -0.00054126   -0.00077110
     atom    7 type  2   force =    -0.00006368   -0.00004479    0.00010588

     Total force =     0.001660     Total SCF correction =     0.000045


     Computing stress (Cartesian axis) and pressure

     stres_hub    :    478.16s CPU     74.07s WALL (      12 calls)
     dprojdepsilo :    399.50s CPU     61.51s WALL (    3888 calls)
     dprojdeps1   :     39.05s CPU      6.37s WALL (    3888 calls)
     dprojdeps2   :    233.89s CPU     34.59s WALL (    3888 calls)
     dprojdeps3   :    126.42s CPU     20.54s WALL (    3888 calls)
          total   stress  (Ry/bohr**3)                   (kbar)     P=        0.04
  -0.00000094  -0.00000088   0.00000009           -0.14       -0.13        0.01
  -0.00000088   0.00000357  -0.00000139           -0.13        0.53       -0.20
   0.00000009  -0.00000139  -0.00000187            0.01       -0.20       -0.27

     Energy error            =      6.4E-06 Ry
     Gradient error          =      8.7E-04 Ry/Bohr
     Cell gradient error     =      5.3E-01 kbar

     number of scf cycles    =  12
     number of bfgs steps    =  11

     enthalpy           old  =    -520.6207787240 Ry
     enthalpy           new  =    -520.6207851715 Ry

     CASE: enthalpy          _new < enthalpy          _old

     new trust radius        =       0.0031461718 bohr
     new conv_thr            =       0.0000000100 Ry

     new unit-cell volume =    487.63534 a.u.^3 (    72.26010 Ang^3 )
     density =      3.85017 g/cm^3

CELL_PARAMETERS (angstrom)
   2.962500669  -0.004719030   0.003098271
   1.492776277   6.184767753  -0.013303177
   2.964168298   3.178913297   3.937752386

ATOMIC_POSITIONS (angstrom)
Mg               3.4408144816        4.7885390313        1.4515557019
Mg               3.4354355706        1.0984059582        0.3387489591
Mn               4.9170505621        2.3235012192        2.5332991691
O                3.4455484668        6.8975662423        1.8169891833
O                4.9196704450        4.2982476545        2.8610217540
O                3.4379005278        2.7869720231        1.3609167019
O                4.9265263106        8.4020060803        3.8939836698



     Writing config-only to output data dir .\out\\qgan.save\ :
     XML data file
     NEW-OLD atomic charge density approx. for the potential
     New effective cutoffs (rho, wfc):  494.72   61.86

     Check: negative core charge=   -0.000002

     Atomic wfc used for Hubbard projectors are orthogonalized


     total cpu time spent up to now is      654.7 secs

     Self-consistent Calculation

     iteration #  1     ecut=    60.00 Ry     beta= 0.70
     Davidson diagonalization with overlap
     ethr =  1.00E-06,  avg # of iterations =  5.6

     =================== HUBBARD OCCUPATIONS ===================
     ------------------------ ATOM    3 ------------------------
     Tr[ns(  3)] =   5.23707
     eigenvalues:
       0.219  0.312  0.399  0.713  0.976
     eigenvectors (columns):
       0.536 -0.001 -0.208  0.001 -0.818
      -0.001  0.965  0.001  0.264 -0.002
      -0.805 -0.001 -0.417 -0.001 -0.422
       0.254  0.003 -0.885 -0.002  0.391
       0.000  0.264  0.003 -0.965 -0.002
     occupation matrix ns (before diag.):
       0.733  0.001  0.277 -0.209  0.001
       0.001  0.340  0.000 -0.001 -0.102
       0.277  0.000  0.385 -0.058  0.001
      -0.209 -0.001 -0.058  0.476  0.000
       0.001 -0.102  0.001  0.000  0.685

     Number of occupied Hubbard levels =    5.2371

     Threshold (ethr) on eigenvalues was too large:
     Diagonalizing with lowered threshold

     Davidson diagonalization with overlap
     ethr =  1.38E-08,  avg # of iterations =  6.3

     total cpu time spent up to now is      662.3 secs

     total energy              =    -520.62078787 Ry
     estimated scf accuracy    <       0.00000708 Ry

     iteration #  2     ecut=    60.00 Ry     beta= 0.70
     Davidson diagonalization with overlap
     ethr =  1.65E-08,  avg # of iterations =  2.3

     total cpu time spent up to now is      665.2 secs

     total energy              =    -520.62078504 Ry
     estimated scf accuracy    <       0.00002100 Ry

     iteration #  3     ecut=    60.00 Ry     beta= 0.70
     Davidson diagonalization with overlap
     ethr =  1.65E-08,  avg # of iterations =  2.0

     total cpu time spent up to now is      667.4 secs

     total energy              =    -520.62078761 Ry
     estimated scf accuracy    <       0.00001484 Ry

     iteration #  4     ecut=    60.00 Ry     beta= 0.70
     Davidson diagonalization with overlap
     ethr =  1.65E-08,  avg # of iterations =  2.0

     total cpu time spent up to now is      669.9 secs

     total energy              =    -520.62078934 Ry
     estimated scf accuracy    <       0.00000320 Ry

     iteration #  5     ecut=    60.00 Ry     beta= 0.70
     Davidson diagonalization with overlap
     ethr =  7.44E-09,  avg # of iterations =  1.2

     total cpu time spent up to now is      672.2 secs

     total energy              =    -520.62078978 Ry
     estimated scf accuracy    <       0.00000019 Ry

     iteration #  6     ecut=    60.00 Ry     beta= 0.70
     Davidson diagonalization with overlap
     ethr =  4.34E-10,  avg # of iterations =  7.1

     total cpu time spent up to now is      676.0 secs

     total energy              =    -520.62078996 Ry
     estimated scf accuracy    <       0.00000005 Ry

     iteration #  7     ecut=    60.00 Ry     beta= 0.70
     Davidson diagonalization with overlap
     ethr =  1.23E-10,  avg # of iterations =  4.4

     total cpu time spent up to now is      679.5 secs

     total energy              =    -520.62078998 Ry
     estimated scf accuracy    <       0.00000002 Ry

     iteration #  8     ecut=    60.00 Ry     beta= 0.70
     Davidson diagonalization with overlap
     ethr =  5.76E-11,  avg # of iterations =  3.3

     total cpu time spent up to now is      682.4 secs

     total energy              =    -520.62078999 Ry
     estimated scf accuracy    <       0.00000001 Ry

     iteration #  9     ecut=    60.00 Ry     beta= 0.70
     Davidson diagonalization with overlap
     ethr =  3.28E-11,  avg # of iterations =  2.8

     total cpu time spent up to now is      685.6 secs

     total energy              =    -520.62078999 Ry
     estimated scf accuracy    <       0.00000001 Ry

     iteration # 10     ecut=    60.00 Ry     beta= 0.70
     Davidson diagonalization with overlap
     ethr =  2.47E-11,  avg # of iterations =  2.4

     total cpu time spent up to now is      688.3 secs

     End of self-consistent calculation

     =================== HUBBARD OCCUPATIONS ===================
     ------------------------ ATOM    3 ------------------------
     Tr[ns(  3)] =   5.23652
     eigenvalues:
       0.219  0.312  0.399  0.713  0.976
     eigenvectors (columns):
       0.535 -0.002 -0.208  0.000 -0.819
      -0.001  0.965  0.001  0.263 -0.003
      -0.806 -0.001 -0.417 -0.000 -0.421
       0.254  0.003 -0.885 -0.002  0.391
      -0.000  0.263  0.003 -0.965 -0.002
     occupation matrix ns (before diag.):
       0.734  0.002  0.276 -0.209  0.001
       0.002  0.339  0.001 -0.001 -0.102
       0.276  0.001  0.385 -0.058  0.001
      -0.209 -0.001 -0.058  0.476  0.000
       0.001 -0.102  0.001  0.000  0.685

     Number of occupied Hubbard levels =    5.2365

          k = 0.0000 0.0000 0.0000 (  3895 PWs)   bands (ev):

   -72.8883 -42.3151 -41.5361 -40.9261 -11.8812 -10.5525 -10.2831 -10.0559
     0.8171   1.4971   2.2395   2.7003   3.0728   3.9158   4.0991   4.3630
     4.6241   5.4173   5.6236   5.6742   6.0607   7.1394   7.9980  10.0768
    10.3386  11.7293

          k =-0.0002 0.0005 0.1876 (  3893 PWs)   bands (ev):

   -72.8883 -42.3152 -41.5362 -40.9261 -11.6847 -10.7079 -10.3536 -10.0937
     1.0140   1.7998   1.9805   3.0747   3.0817   3.8777   4.0220   4.4746
     4.5971   4.9620   5.5699   5.5984   5.7620   7.0969   8.1006   9.7867
    10.3805  12.8459

          k = 0.0004-0.0009-0.3752 (  3894 PWs)   bands (ev):

   -72.8882 -42.3152 -41.5362 -40.9261 -11.3540 -10.9829 -10.4251 -10.1466
     1.2719   1.8277   2.5178   3.0159   3.0707   3.4824   3.8716   4.5482
     4.5651   4.8318   5.4799   5.5180   5.6296   7.0536   8.1836   9.5447
    10.4230  14.4596

          k = 0.0003 0.1193-0.0965 (  3888 PWs)   bands (ev):

   -72.8883 -42.3151 -41.5361 -40.9261 -11.7761 -10.5794 -10.4197 -10.0390
     1.0402   1.5161   2.1957   2.7956   3.1080   3.9367   4.1142   4.3102
     4.6889   5.0205   5.4856   5.6262   6.0640   7.1637   7.9915  10.1415
    10.3786  12.5188

          k = 0.0001 0.1197 0.0911 (  3903 PWs)   bands (ev):

   -72.8884 -42.3152 -41.5361 -40.9261 -11.7293 -10.7893 -10.2463 -10.0487
     0.9510   1.7966   2.1076   2.8933   3.0403   3.8060   3.9161   4.4797
     4.6139   5.2192   5.5799   5.5821   5.8394   7.1340   8.0966   9.7925
    10.3397  12.4940

          k = 0.0007 0.1184-0.4717 (  3923 PWs)   bands (ev):

   -72.8883 -42.3153 -41.5362 -40.9261 -11.4047 -11.0621 -10.3250 -10.0895
     1.3090   1.6544   2.4304   3.0390   3.1530   3.5094   3.8987   4.3318
     4.5834   5.0791   5.4385   5.4952   5.6755   7.0900   8.2001   9.5550
    10.3821  13.8568

          k = 0.0005 0.1188-0.2841 (  3906 PWs)   bands (ev):

   -72.8882 -42.3152 -41.5362 -40.9261 -11.5317 -10.7877 -10.4834 -10.0790
     1.2372   1.7907   2.2208   2.9702   3.1076   3.8316   3.8953   4.4295
     4.5031   4.8985   5.4468   5.5457   5.7682   7.1240   8.1209   9.8647
    10.4202  14.0904

          k =-0.0006-0.2386 0.1930 (  3908 PWs)   bands (ev):

   -72.8883 -42.3151 -41.5362 -40.9261 -11.6420 -10.6779 -10.5093 -10.0255
     1.0192   1.8615   2.4012   2.8202   3.1456   3.6042   3.9610   4.2525
     4.5788   4.9927   5.4761   5.5775   6.0649   7.1881   7.9830  10.2103
    10.4180  13.8317

          k =-0.0008-0.2381 0.3806 (  3905 PWs)   bands (ev):

   -72.8883 -42.3152 -41.5362 -40.9261 -11.5903 -10.8594 -10.3700 -10.0365
     1.3383   1.7498   2.0057   2.9066   3.0711   3.8063   3.9377   4.4333
     4.7332   4.8807   5.4324   5.5280   5.8050   7.1594   8.1269   9.8757
    10.3796  13.4181

          k =-0.0002-0.2395-0.1821 (  3896 PWs)   bands (ev):

   -72.8883 -42.3153 -41.5361 -40.9261 -11.4476 -11.1311 -10.2300 -10.0454
     1.1558   1.8280   2.3149   3.0091   3.0313   3.7100   3.9275   4.0954
     4.5944   5.1791   5.4785   5.5549   5.7309   7.1248   8.1662   9.5449
    10.3412  13.7603

          k = 0.2497-0.0606-0.1391 (  3914 PWs)   bands (ev):

   -72.8854 -42.3122 -41.5306 -40.9651 -11.3236 -10.5806 -10.2129 -10.0388
     1.4038   1.6757   2.1275   2.4333   2.7798   3.0144   3.8366   4.0098
     4.2814   5.0108   5.3002   5.5130   6.1175   6.9807   8.0213   9.6907
    10.1037  13.9380

          k = 0.2495-0.0601 0.0485 (  3892 PWs)   bands (ev):

   -72.8854 -42.3121 -41.5306 -40.9651 -11.4225 -10.4535 -10.2585 -10.0055
     1.4214   1.8148   2.0448   2.4457   2.8254   2.8676   3.7110   3.9893
     4.2896   5.0278   5.3859   5.5633   6.0433   7.0704   7.9491   9.7575
    10.0795  13.5861

          k = 0.2501-0.0615-0.5142 (  3918 PWs)   bands (ev):

   -72.8855 -42.3122 -41.5306 -40.9651 -11.2275 -10.5502 -10.3450 -10.0579
     1.3230   1.6838   2.2020   2.5542   2.6740   3.0087   3.9998   4.1222
     4.3899   4.9244   5.0540   5.4796   6.1598   6.9697   8.0176   9.6467
    10.0345  14.7081

          k = 0.2499-0.0610-0.3266 (  3915 PWs)   bands (ev):

   -72.8855 -42.3122 -41.5306 -40.9651 -11.0418 -10.7631 -10.2961 -10.0967
     1.3348   1.6521   2.0962   2.4473   2.7319   3.3587   3.9200   4.2019
     4.3859   4.8560   4.9987   5.4655   6.1820   6.8933   8.0853   9.8111
     9.8583  15.0984

          k = 0.2500 0.0587-0.2356 (  3915 PWs)   bands (ev):

   -72.8855 -42.3122 -41.5306 -40.9651 -11.2276 -10.5503 -10.3447 -10.0581
     1.3234   1.6839   2.2023   2.5530   2.6743   3.0089   3.9989   4.1221
     4.3902   4.9252   5.0535   5.4795   6.1599   6.9705   8.0172   9.6473
    10.0338  14.7074

          k = 0.2498 0.0592-0.0480 (  3895 PWs)   bands (ev):

   -72.8854 -42.3121 -41.5306 -40.9651 -11.4226 -10.4534 -10.2584 -10.0055
     1.4214   1.8147   2.0447   2.4456   2.8243   2.8687   3.7110   3.9889
     4.2901   5.0271   5.3867   5.5635   6.0431   7.0706   7.9490   9.7575
    10.0794  13.5858

          k = 0.2504 0.0578-0.6108 (  3909 PWs)   bands (ev):

   -72.8854 -42.3122 -41.5306 -40.9651 -11.3237 -10.5803 -10.2131 -10.0387
     1.4033   1.6759   2.1273   2.4329   2.7811   3.0137   3.8368   4.0104
     4.2814   5.0105   5.2997   5.5136   6.1178   6.9804   8.0215   9.6901
    10.1041  13.9385

          k = 0.2502 0.0583-0.4232 (  3913 PWs)   bands (ev):

   -72.8855 -42.3122 -41.5306 -40.9651 -11.0418 -10.7629 -10.2962 -10.0968
     1.3349   1.6520   2.0961   2.4474   2.7317   3.3591   3.9208   4.2014
     4.3854   4.8559   4.9986   5.4658   6.1821   6.8935   8.0852   9.8114
     9.8577  15.0985

          k = 0.2491-0.2992 0.0540 (  3925 PWs)   bands (ev):

   -72.8855 -42.3122 -41.5306 -40.9651 -11.1571 -10.6490 -10.3427 -10.0429
     1.4703   1.8449   2.1105   2.4659   2.6737   3.1208   3.7062   4.0377
     4.3784   4.8966   5.1112   5.5337   6.1526   6.9810   8.0319   9.6626
    10.1178  14.7107

          k = 0.2489-0.2987 0.2416 (  3913 PWs)   bands (ev):

   -72.8855 -42.3121 -41.5306 -40.9651 -11.2890 -10.4730 -10.4043 -10.0083
     1.3844   1.9733   2.2632   2.5098   2.6652   2.8899   3.5492   3.9489
     4.4802   4.9105   5.1590   5.5916   6.1126   7.0855   7.9367   9.7059
    10.0836  14.4961

          k = 0.2495-0.3001-0.3212 (  3910 PWs)   bands (ev):

   -72.8854 -42.3122 -41.5306 -40.9651 -11.2719 -10.6432 -10.2249 -10.0271
     1.6110   1.7842   1.9356   2.5656   2.7882   3.0481   3.5683   3.8880
     4.1517   5.0706   5.3511   5.5730   6.1074   6.9849   8.0325   9.7189
    10.1878  13.8651

          k = 0.2493-0.2996-0.1336 (  3919 PWs)   bands (ev):

   -72.8854 -42.3122 -41.5306 -40.9651 -11.0637 -10.8664 -10.1958 -10.0572
     1.5709   1.7180   1.9745   2.5673   2.7534   3.1037   3.5104   4.1692
     4.2909   4.8417   5.3176   5.5423   6.1542   6.8939   8.0981   9.9090
     9.9432  14.6157

          k = 0.2494-0.1799-0.0425 (  3912 PWs)   bands (ev):

   -72.8854 -42.3122 -41.5306 -40.9651 -11.2716 -10.6435 -10.2249 -10.0272
     1.6113   1.7844   1.9357   2.5665   2.7877   3.0471   3.5683   3.8879
     4.1523   5.0705   5.3503   5.5732   6.1074   6.9852   8.0322   9.7194
    10.1872  13.8650

          k = 0.2492-0.1794 0.1451 (  3918 PWs)   bands (ev):

   -72.8855 -42.3121 -41.5306 -40.9651 -11.2888 -10.4732 -10.4043 -10.0083
     1.3843   1.9732   2.2633   2.5110   2.6649   2.8898   3.5488   3.9491
     4.4801   4.9102   5.1593   5.5914   6.1126   7.0853   7.9367   9.7057
    10.0836  14.4967

          k = 0.2498-0.1808-0.4177 (  3924 PWs)   bands (ev):

   -72.8855 -42.3122 -41.5306 -40.9651 -11.1573 -10.6489 -10.3427 -10.0428
     1.4696   1.8450   2.1105   2.4664   2.6734   3.1213   3.7054   4.0384
     4.3780   4.8970   5.1116   5.5336   6.1523   6.9803   8.0324   9.6621
    10.1187  14.7106

          k = 0.2496-0.1803-0.2301 (  3912 PWs)   bands (ev):

   -72.8854 -42.3122 -41.5306 -40.9651 -11.0636 -10.8666 -10.1957 -10.0571
     1.5710   1.7178   1.9747   2.5675   2.7533   3.1037   3.5098   4.1700
     4.2907   4.8416   5.3184   5.5418   6.1541   6.8937   8.0983   9.9086
     9.9439  14.6157

          k =-0.4994 0.1211 0.2781 (  3922 PWs)   bands (ev):

   -72.8831 -42.3091 -41.5250 -41.0037 -10.6344 -10.4393 -10.2801 -10.1005
     0.7115   1.2103   1.8412   2.2732   2.5870   3.4986   3.8987   4.2678
     4.5364   4.7655   4.8098   5.3324   5.9766   6.7970   7.9298   9.9976
    10.1058  15.3001

          k =-0.4996 0.1216 0.4657 (  3915 PWs)   bands (ev):

   -72.8831 -42.3091 -41.5250 -41.0038 -10.6800 -10.4561 -10.2654 -10.0590
     0.9148   1.2296   1.9718   2.3765   2.5971   3.4243   3.6783   4.2289
     4.4034   4.5185   4.9170   5.1671   5.9732   6.9651   7.9141   9.8131
    10.0643  15.8392

          k =-0.4990 0.1202-0.0971 (  3934 PWs)   bands (ev):

   -72.8831 -42.3091 -41.5250 -41.0038 -10.7180 -10.4762 -10.2487 -10.0237
     1.0782   1.3426   2.2138   2.4479   2.6504   3.1051   3.3962   4.1575
     4.3492   4.4907   4.9016   5.0384   5.9640   7.0938   7.9020   9.5980
    10.0792  16.0893

          k =-0.4991 0.2404 0.1816 (  3931 PWs)   bands (ev):

   -72.8831 -42.3091 -41.5250 -41.0037 -10.6343 -10.4399 -10.2792 -10.1010
     0.7770   1.1120   1.8488   2.2722   2.5756   3.6513   3.8616   4.2014
     4.5297   4.7528   4.8208   5.3277   5.9752   6.8003   7.9243  10.0121
    10.0812  15.6066

          k =-0.4993 0.2409 0.3692 (  3926 PWs)   bands (ev):

   -72.8831 -42.3091 -41.5250 -41.0038 -10.6794 -10.4586 -10.2629 -10.0595
     0.8995   1.2663   1.9649   2.2345   2.7993   3.3427   3.6752   4.2138
     4.4080   4.5192   4.9283   5.1756   5.9715   6.9700   7.9136   9.8017
    10.0778  15.6314

          k =-0.4987 0.2395-0.1936 (  3912 PWs)   bands (ev):

   -72.8830 -42.3091 -41.5250 -41.0038 -10.7201 -10.4702 -10.2543 -10.0218
     1.0924   1.3114   2.1813   2.5354   2.6908   3.0029   3.4670   4.1334
     4.2843   4.4840   4.8815   5.1004   5.9684   7.0984   7.9022   9.6081
    10.0712  16.0451

          k =-0.4989 0.2400-0.0060 (  3926 PWs)   bands (ev):

   -72.8831 -42.3091 -41.5250 -41.0038 -10.6793 -10.4586 -10.2629 -10.0597
     0.8997   1.2660   1.9643   2.2346   2.7995   3.3429   3.6754   4.2136
     4.4088   4.5195   4.9280   5.1753   5.9716   6.9699   7.9134   9.8014
    10.0779  15.6294

          k =-0.4999-0.1175 0.4712 (  3926 PWs)   bands (ev):

   -72.8831 -42.3091 -41.5250 -41.0037 -10.6345 -10.4392 -10.2800 -10.1006
     0.7123   1.2095   1.8408   2.2730   2.5859   3.4993   3.8996   4.2682
     4.5368   4.7655   4.8096   5.3323   5.9766   6.7973   7.9294   9.9964
    10.1065  15.2979

          k =-0.5001-0.1170 0.6587 (  3915 PWs)   bands (ev):

   -72.8831 -42.3091 -41.5250 -41.0038 -10.6802 -10.4560 -10.2653 -10.0589
     0.9155   1.2293   1.9716   2.3760   2.5960   3.4246   3.6789   4.2286
     4.4036   4.5191   4.9171   5.1673   5.9732   6.9655   7.9138   9.8126
    10.0644  15.8396

          k =-0.4995-0.1184 0.0960 (  3928 PWs)   bands (ev):

   -72.8831 -42.3091 -41.5250 -41.0038 -10.7183 -10.4762 -10.2487 -10.0234
     1.0790   1.3424   2.2136   2.4477   2.6492   3.1056   3.3963   4.1572
     4.3489   4.4909   4.9022   5.0389   5.9640   7.0943   7.9019   9.5976
    10.0793  16.0913

     the Fermi energy is     7.0461 ev

!    total energy              =    -520.62079001 Ry
     total all-electron energy =     -3720.874048 Ry
     estimated scf accuracy    <          6.4E-09 Ry
     smearing contrib. (-TS)   =      -0.00492442 Ry
     internal energy E=F+TS    =    -520.61586560 Ry

     The total energy is F=E-TS. E is the sum of the following terms:
     one-electron contribution =    -240.57003635 Ry
     hartree contribution      =     145.35841667 Ry
     xc contribution           =     -61.24981455 Ry
     ewald contribution        =    -185.65838660 Ry
     Hubbard energy            =       0.24480780 Ry
     one-center paw contrib.   =    -178.74085257 Ry

     convergence has been achieved in  10 iterations
     force_hub    :    185.80s CPU     30.84s WALL (      13 calls)
     dndtau       :    164.00s CPU     27.33s WALL (    9828 calls)
     dprojdtau    :     22.75s CPU      4.08s WALL (    9828 calls)
     calc_doverla :     90.08s CPU     14.67s WALL (    9828 calls)
     matel_dSdtau :    122.14s CPU     19.74s WALL (   19656 calls)

     Forces acting on atoms (cartesian axes, Ry/au):

     atom    1 type  1   force =     0.00003660   -0.00029518    0.00002218
     atom    2 type  1   force =     0.00002378    0.00003497    0.00023872
     atom    3 type  3   force =     0.00001598    0.00010588   -0.00054772
     atom    4 type  2   force =    -0.00012594    0.00031103    0.00024863
     atom    5 type  2   force =     0.00006487    0.00039309    0.00057932
     atom    6 type  2   force =    -0.00004244   -0.00034674   -0.00052988
     atom    7 type  2   force =     0.00002716   -0.00020305   -0.00001125

     Total force =     0.001254     Total SCF correction =     0.000057


     Computing stress (Cartesian axis) and pressure

     stres_hub    :    516.92s CPU     81.07s WALL (      13 calls)
     dprojdepsilo :    432.00s CPU     67.44s WALL (    4212 calls)
     dprojdeps1   :     41.45s CPU      6.93s WALL (    4212 calls)
     dprojdeps2   :    252.39s CPU     38.04s WALL (    4212 calls)
     dprojdeps3   :    138.02s CPU     22.46s WALL (    4212 calls)
          total   stress  (Ry/bohr**3)                   (kbar)     P=       -0.05
  -0.00000523  -0.00000050  -0.00000033           -0.77       -0.07       -0.05
  -0.00000050   0.00000284  -0.00000147           -0.07        0.42       -0.22
  -0.00000033  -0.00000147   0.00000141           -0.05       -0.22        0.21

     Energy error            =      4.8E-06 Ry
     Gradient error          =      5.8E-04 Ry/Bohr
     Cell gradient error     =      7.7E-01 kbar

     number of scf cycles    =  13
     number of bfgs steps    =  12

     enthalpy           old  =    -520.6207851715 Ry
     enthalpy           new  =    -520.6207900143 Ry

     CASE: enthalpy          _new < enthalpy          _old

     new trust radius        =       0.0022412354 bohr
     new conv_thr            =       0.0000000100 Ry

     new unit-cell volume =    487.66215 a.u.^3 (    72.26407 Ang^3 )
     density =      3.84995 g/cm^3

CELL_PARAMETERS (angstrom)
   2.962514601  -0.004969896   0.003219911
   1.492245543   6.186342286  -0.013605542
   2.964070634   3.179311131   3.936802937

ATOMIC_POSITIONS (angstrom)
Mg               3.4409490952        4.7889985662        1.4509561605
Mg               3.4353803368        1.0981177509        0.3390080639
Mn               4.9168457806        2.3241371296        2.5322052412
O                3.4445913553        6.8994729493        1.8171470680
O                4.9197211660        4.2985510617        2.8608764706
O                3.4377564352        2.7871086143        1.3594316182
O                4.9257720918        8.4040391953        3.8930539689



     Writing config-only to output data dir .\out\\qgan.save\ :
     XML data file
     NEW-OLD atomic charge density approx. for the potential
     New effective cutoffs (rho, wfc):  494.92   61.89

     Check: negative core charge=   -0.000002

     Atomic wfc used for Hubbard projectors are orthogonalized


     total cpu time spent up to now is      701.1 secs

     Self-consistent Calculation

     iteration #  1     ecut=    60.00 Ry     beta= 0.70
     Davidson diagonalization with overlap
     ethr =  1.00E-06,  avg # of iterations =  3.1

     =================== HUBBARD OCCUPATIONS ===================
     ------------------------ ATOM    3 ------------------------
     Tr[ns(  3)] =   5.23667
     eigenvalues:
       0.219  0.312  0.399  0.713  0.976
     eigenvectors (columns):
       0.535 -0.002 -0.208  0.000 -0.819
      -0.001  0.965  0.001  0.263 -0.003
      -0.806 -0.001 -0.417 -0.000 -0.421
       0.254  0.003 -0.885 -0.003  0.391
      -0.000  0.263  0.003 -0.965 -0.002
     occupation matrix ns (before diag.):
       0.734  0.002  0.276 -0.209  0.001
       0.002  0.339  0.001 -0.001 -0.102
       0.276  0.001  0.384 -0.058  0.001
      -0.209 -0.001 -0.058  0.476  0.000
       0.001 -0.102  0.001  0.000  0.685

     Number of occupied Hubbard levels =    5.2367

     Threshold (ethr) on eigenvalues was too large:
     Diagonalizing with lowered threshold

     Davidson diagonalization with overlap
     ethr =  1.21E-08,  avg # of iterations =  8.9

     total cpu time spent up to now is      709.0 secs

     total energy              =    -520.62079182 Ry
     estimated scf accuracy    <       0.00000318 Ry

     iteration #  2     ecut=    60.00 Ry     beta= 0.70
     Davidson diagonalization with overlap
     ethr =  7.40E-09,  avg # of iterations =  2.0

     total cpu time spent up to now is      711.4 secs

     total energy              =    -520.62079123 Ry
     estimated scf accuracy    <       0.00000368 Ry

     iteration #  3     ecut=    60.00 Ry     beta= 0.70
     Davidson diagonalization with overlap
     ethr =  7.40E-09,  avg # of iterations =  2.0

     total cpu time spent up to now is      713.8 secs

     total energy              =    -520.62079152 Ry
     estimated scf accuracy    <       0.00000645 Ry

     iteration #  4     ecut=    60.00 Ry     beta= 0.70
     Davidson diagonalization with overlap
     ethr =  7.40E-09,  avg # of iterations =  2.0

     total cpu time spent up to now is      716.2 secs

     total energy              =    -520.62079218 Ry
     estimated scf accuracy    <       0.00000279 Ry

     iteration #  5     ecut=    60.00 Ry     beta= 0.70
     Davidson diagonalization with overlap
     ethr =  6.50E-09,  avg # of iterations =  1.0

     total cpu time spent up to now is      718.5 secs

     total energy              =    -520.62079250 Ry
     estimated scf accuracy    <       0.00000004 Ry

     iteration #  6     ecut=    60.00 Ry     beta= 0.70
     Davidson diagonalization with overlap
     ethr =  8.90E-11,  avg # of iterations = 11.0

     total cpu time spent up to now is      723.1 secs

     total energy              =    -520.62079258 Ry
     estimated scf accuracy    <       0.00000007 Ry

     iteration #  7     ecut=    60.00 Ry     beta= 0.70
     Davidson diagonalization with overlap
     ethr =  8.90E-11,  avg # of iterations =  2.2

     total cpu time spent up to now is      725.6 secs

     total energy              =    -520.62079259 Ry
     estimated scf accuracy    <       0.00000001 Ry

     iteration #  8     ecut=    60.00 Ry     beta= 0.70
     Davidson diagonalization with overlap
     ethr =  2.58E-11,  avg # of iterations =  8.5

     total cpu time spent up to now is      729.3 secs

     End of self-consistent calculation

     =================== HUBBARD OCCUPATIONS ===================
     ------------------------ ATOM    3 ------------------------
     Tr[ns(  3)] =   5.23655
     eigenvalues:
       0.219  0.312  0.399  0.713  0.976
     eigenvectors (columns):
       0.535 -0.002 -0.208  0.000 -0.819
      -0.001  0.965  0.001  0.263 -0.003
      -0.806 -0.001 -0.417 -0.000 -0.420
       0.254  0.003 -0.885 -0.003  0.391
      -0.001  0.263  0.003 -0.965 -0.002
     occupation matrix ns (before diag.):
       0.734  0.002  0.276 -0.209  0.001
       0.002  0.339  0.001 -0.001 -0.102
       0.276  0.001  0.384 -0.058  0.001
      -0.209 -0.001 -0.058  0.476  0.000
       0.001 -0.102  0.001  0.000  0.685

     Number of occupied Hubbard levels =    5.2365

          k = 0.0000 0.0000 0.0000 (  3895 PWs)   bands (ev):

   -72.8894 -42.3165 -41.5374 -40.9267 -11.8816 -10.5528 -10.2836 -10.0586
     0.8175   1.4945   2.2395   2.7001   3.0736   3.9145   4.0963   4.3625
     4.6252   5.4155   5.6221   5.6720   6.0592   7.1388   7.9962  10.0762
    10.3366  11.7290

          k =-0.0002 0.0005 0.1876 (  3893 PWs)   bands (ev):

   -72.8894 -42.3166 -41.5375 -40.9267 -11.6849 -10.7080 -10.3543 -10.0964
     1.0145   1.7992   1.9782   3.0756   3.0816   3.8766   4.0207   4.4739
     4.5959   4.9619   5.5674   5.5959   5.7604   7.0965   8.0989   9.7858
    10.3784  12.8458

          k = 0.0004-0.0009-0.3753 (  3894 PWs)   bands (ev):

   -72.8893 -42.3166 -41.5375 -40.9267 -11.3543 -10.9826 -10.4261 -10.1494
     1.2721   1.8279   2.5169   3.0142   3.0716   3.4808   3.8707   4.5485
     4.5644   4.8299   5.4780   5.5153   5.6277   7.0533   8.1820   9.5435
    10.4210  14.4616

          k = 0.0003 0.1193-0.0965 (  3888 PWs)   bands (ev):

   -72.8894 -42.3165 -41.5374 -40.9267 -11.7765 -10.5800 -10.4197 -10.0418
     1.0400   1.5145   2.1953   2.7951   3.1088   3.9354   4.1129   4.3096
     4.6880   5.0204   5.4829   5.6241   6.0626   7.1631   7.9900  10.1412
    10.3765  12.5184

          k = 0.0001 0.1197 0.0911 (  3903 PWs)   bands (ev):

   -72.8894 -42.3166 -41.5374 -40.9267 -11.7296 -10.7896 -10.2469 -10.0514
     0.9516   1.7955   2.1065   2.8927   3.0412   3.8045   3.9149   4.4790
     4.6130   5.2164   5.5776   5.5810   5.8383   7.1334   8.0951   9.7917
    10.3377  12.4937

          k = 0.0007 0.1183-0.4718 (  3923 PWs)   bands (ev):

   -72.8894 -42.3166 -41.5375 -40.9267 -11.4049 -11.0623 -10.3257 -10.0923
     1.3096   1.6546   2.4297   3.0400   3.1508   3.5081   3.8976   4.3299
     4.5827   5.0780   5.4367   5.4926   5.6740   7.0896   8.1987   9.5540
    10.3801  13.8558

          k = 0.0005 0.1188-0.2842 (  3906 PWs)   bands (ev):

   -72.8893 -42.3166 -41.5375 -40.9267 -11.5322 -10.7876 -10.4840 -10.0818
     1.2372   1.7897   2.2201   2.9694   3.1085   3.8309   3.8942   4.4288
     4.5022   4.8973   5.4444   5.5434   5.7666   7.1235   8.1194   9.8642
    10.4181  14.0911

          k =-0.0006-0.2385 0.1931 (  3908 PWs)   bands (ev):

   -72.8894 -42.3165 -41.5375 -40.9267 -11.6425 -10.6787 -10.5089 -10.0283
     1.0181   1.8613   2.4004   2.8192   3.1464   3.6037   3.9598   4.2517
     4.5772   4.9922   5.4737   5.5754   6.0635   7.1875   7.9815  10.2105
    10.4158  13.8319

          k =-0.0008-0.2380 0.3807 (  3905 PWs)   bands (ev):

   -72.8894 -42.3166 -41.5375 -40.9267 -11.5908 -10.8595 -10.3704 -10.0393
     1.3389   1.7485   2.0055   2.9056   3.0720   3.8049   3.9366   4.4326
     4.7317   4.8787   5.4305   5.5257   5.8038   7.1588   8.1258   9.8753
    10.3776  13.4177

          k =-0.0002-0.2394-0.1822 (  3896 PWs)   bands (ev):

   -72.8894 -42.3166 -41.5374 -40.9267 -11.4477 -11.1314 -10.2305 -10.0482
     1.1567   1.8286   2.3148   3.0101   3.0282   3.7079   3.9264   4.0938
     4.5936   5.1769   5.4760   5.5528   5.7306   7.1243   8.1649   9.5442
    10.3392  13.7585

          k = 0.2497-0.0605-0.1391 (  3914 PWs)   bands (ev):

   -72.8865 -42.3135 -41.5319 -40.9656 -11.3240 -10.5806 -10.2136 -10.0414
     1.4042   1.6749   2.1272   2.4323   2.7796   3.0134   3.8352   4.0084
     4.2798   5.0100   5.2991   5.5104   6.1169   6.9797   8.0196   9.6895
    10.1026  13.9387

          k = 0.2495-0.0601 0.0485 (  3892 PWs)   bands (ev):

   -72.8865 -42.3135 -41.5319 -40.9657 -11.4230 -10.4535 -10.2591 -10.0080
     1.4214   1.8134   2.0444   2.4453   2.8253   2.8670   3.7102   3.9872
     4.2881   5.0272   5.3852   5.5603   6.0426   7.0695   7.9472   9.7567
    10.0782  13.5860

          k = 0.2501-0.0615-0.5144 (  3918 PWs)   bands (ev):

   -72.8865 -42.3135 -41.5319 -40.9657 -11.2280 -10.5500 -10.3458 -10.0606
     1.3232   1.6830   2.2012   2.5536   2.6738   3.0080   3.9979   4.1213
     4.3883   4.9236   5.0538   5.4763   6.1594   6.9684   8.0158   9.6455
    10.0335  14.7084

          k = 0.2499-0.0610-0.3267 (  3915 PWs)   bands (ev):

   -72.8865 -42.3136 -41.5319 -40.9656 -11.0423 -10.7627 -10.2969 -10.0995
     1.3350   1.6518   2.0957   2.4466   2.7316   3.3576   3.9187   4.2003
     4.3841   4.8550   4.9987   5.4621   6.1818   6.8920   8.0835   9.8103
     9.8568  15.0999

          k = 0.2500 0.0587-0.2356 (  3915 PWs)   bands (ev):

   -72.8865 -42.3135 -41.5319 -40.9657 -11.2280 -10.5501 -10.3457 -10.0607
     1.3235   1.6831   2.2015   2.5527   2.6740   3.0082   3.9973   4.1212
     4.3884   4.9240   5.0537   5.4761   6.1594   6.9691   8.0153   9.6462
    10.0329  14.7081

          k = 0.2498 0.0592-0.0480 (  3895 PWs)   bands (ev):

   -72.8865 -42.3135 -41.5319 -40.9657 -11.4230 -10.4535 -10.2591 -10.0080
     1.4214   1.8133   2.0443   2.4453   2.8246   2.8678   3.7102   3.9871
     4.2881   5.0270   5.3856   5.5603   6.0425   7.0696   7.9471   9.7567
    10.0781  13.5859

          k = 0.2504 0.0578-0.6109 (  3909 PWs)   bands (ev):

   -72.8865 -42.3135 -41.5319 -40.9656 -11.3241 -10.5805 -10.2137 -10.0414
     1.4039   1.6749   2.1271   2.4320   2.7804   3.0131   3.8353   4.0089
     4.2798   5.0098   5.2987   5.5108   6.1171   6.9794   8.0198   9.6890
    10.1030  13.9389

          k = 0.2502 0.0583-0.4233 (  3913 PWs)   bands (ev):

   -72.8865 -42.3136 -41.5319 -40.9656 -11.0424 -10.7626 -10.2969 -10.0995
     1.3350   1.6517   2.0958   2.4467   2.7314   3.3577   3.9191   4.2001
     4.3838   4.8550   4.9985   5.4623   6.1819   6.8921   8.0834   9.8107
     9.8563  15.0998

          k = 0.2491-0.2990 0.0540 (  3925 PWs)   bands (ev):

   -72.8865 -42.3135 -41.5319 -40.9657 -11.1578 -10.6490 -10.3431 -10.0456
     1.4699   1.8445   2.1102   2.4652   2.6731   3.1205   3.7055   4.0364
     4.3759   4.8958   5.1102   5.5304   6.1522   6.9797   8.0304   9.6617
    10.1172  14.7101

          k = 0.2489-0.2986 0.2416 (  3913 PWs)   bands (ev):

   -72.8865 -42.3135 -41.5319 -40.9657 -11.2895 -10.4737 -10.4041 -10.0109
     1.3836   1.9726   2.2628   2.5098   2.6651   2.8889   3.5487   3.9476
     4.4781   4.9096   5.1582   5.5883   6.1120   7.0842   7.9350   9.7051
    10.0829  14.4960

          k = 0.2495-0.3000-0.3213 (  3910 PWs)   bands (ev):

   -72.8865 -42.3135 -41.5319 -40.9657 -11.2723 -10.6434 -10.2253 -10.0298
     1.6113   1.7833   1.9356   2.5651   2.7876   3.0474   3.5671   3.8873
     4.1493   5.0692   5.3497   5.5701   6.1070   6.9839   8.0311   9.7179
    10.1868  13.8653

          k = 0.2493-0.2995-0.1337 (  3919 PWs)   bands (ev):

   -72.8865 -42.3136 -41.5319 -40.9656 -11.0641 -10.8666 -10.1962 -10.0599
     1.5715   1.7179   1.9744   2.5665   2.7525   3.1032   3.5082   4.1676
     4.2893   4.8408   5.3161   5.5395   6.1537   6.8927   8.0969   9.9083
     9.9419  14.6167

          k = 0.2494-0.1798-0.0426 (  3912 PWs)   bands (ev):

   -72.8865 -42.3135 -41.5319 -40.9657 -11.2722 -10.6435 -10.2253 -10.0298
     1.6117   1.7835   1.9358   2.5655   2.7873   3.0467   3.5672   3.8869
     4.1498   5.0690   5.3494   5.5702   6.1069   6.9841   8.0308   9.7184
    10.1864  13.8652

          k = 0.2492-0.1793 0.1451 (  3918 PWs)   bands (ev):

   -72.8865 -42.3135 -41.5319 -40.9657 -11.2895 -10.4738 -10.4041 -10.0109
     1.3836   1.9724   2.2628   2.5106   2.6647   2.8889   3.5484   3.9477
     4.4782   4.9095   5.1584   5.5882   6.1120   7.0841   7.9351   9.7050
    10.0829  14.4962

          k = 0.2498-0.1807-0.4178 (  3924 PWs)   bands (ev):

   -72.8865 -42.3135 -41.5319 -40.9657 -11.1579 -10.6489 -10.3432 -10.0455
     1.4693   1.8445   2.1102   2.4654   2.6732   3.1208   3.7052   4.0369
     4.3756   4.8961   5.1105   5.5303   6.1520   6.9791   8.0308   9.6611
    10.1178  14.7104

          k = 0.2496-0.1802-0.2302 (  3912 PWs)   bands (ev):

   -72.8865 -42.3136 -41.5319 -40.9656 -11.0640 -10.8667 -10.1962 -10.0599
     1.5715   1.7177   1.9744   2.5664   2.7527   3.1032   3.5079   4.1681
     4.2891   4.8409   5.3165   5.5392   6.1537   6.8926   8.0970   9.9080
     9.9424  14.6168

          k =-0.4994 0.1211 0.2782 (  3922 PWs)   bands (ev):

   -72.8842 -42.3105 -41.5263 -41.0043 -10.6351 -10.4384 -10.2815 -10.1028
     0.7107   1.2103   1.8407   2.2718   2.5852   3.4981   3.8995   4.2675
     4.5356   4.7634   4.8072   5.3311   5.9758   6.7959   7.9282   9.9966
    10.1048  15.2990

          k =-0.4996 0.1215 0.4658 (  3915 PWs)   bands (ev):

   -72.8842 -42.3105 -41.5263 -41.0043 -10.6810 -10.4554 -10.2666 -10.0611
     0.9141   1.2297   1.9710   2.3751   2.5960   3.4239   3.6778   4.2286
     4.4025   4.5174   4.9149   5.1648   5.9724   6.9641   7.9124   9.8127
    10.0626  15.8401

          k =-0.4989 0.1201-0.0971 (  3934 PWs)   bands (ev):

   -72.8841 -42.3105 -41.5263 -41.0043 -10.7190 -10.4757 -10.2498 -10.0256
     1.0779   1.3424   2.2137   2.4463   2.6492   3.1033   3.3967   4.1561
     4.3489   4.4904   4.8989   5.0362   5.9632   7.0930   7.9002   9.5975
    10.0777  16.0894

          k =-0.4990 0.2403 0.1817 (  3931 PWs)   bands (ev):

   -72.8842 -42.3105 -41.5263 -41.0043 -10.6349 -10.4391 -10.2807 -10.1033
     0.7758   1.1123   1.8483   2.2711   2.5743   3.6508   3.8611   4.2016
     4.5283   4.7511   4.8182   5.3266   5.9744   6.7992   7.9228  10.0112
    10.0801  15.6072

          k =-0.4993 0.2408 0.3693 (  3926 PWs)   bands (ev):

   -72.8842 -42.3105 -41.5263 -41.0043 -10.6803 -10.4579 -10.2642 -10.0617
     0.8986   1.2665   1.9639   2.2336   2.7981   3.3419   3.6751   4.2137
     4.4071   4.5181   4.9258   5.1734   5.9707   6.9689   7.9119   9.8015
    10.0762  15.6306

          k =-0.4986 0.2394-0.1936 (  3912 PWs)   bands (ev):

   -72.8841 -42.3105 -41.5263 -41.0043 -10.7210 -10.4697 -10.2555 -10.0239
     1.0919   1.3112   2.1809   2.5344   2.6895   3.0014   3.4673   4.1325
     4.2830   4.4837   4.8793   5.0978   5.9677   7.0975   7.9004   9.6079
    10.0695  16.0458

          k =-0.4988 0.2399-0.0060 (  3926 PWs)   bands (ev):

   -72.8842 -42.3105 -41.5263 -41.0043 -10.6802 -10.4580 -10.2641 -10.0618
     0.8989   1.2662   1.9636   2.2336   2.7984   3.3420   3.6752   4.2132
     4.4076   4.5184   4.9255   5.1732   5.9708   6.9690   7.9118   9.8011
    10.0764  15.6295

          k =-0.5000-0.1174 0.4713 (  3926 PWs)   bands (ev):

   -72.8842 -42.3105 -41.5263 -41.0043 -10.6352 -10.4384 -10.2814 -10.1029
     0.7112   1.2097   1.8405   2.2720   2.5848   3.4986   3.8996   4.2674
     4.5357   4.7635   4.8070   5.3311   5.9758   6.7962   7.9280   9.9957
    10.1054  15.2978

          k =-0.5002-0.1170 0.6589 (  3915 PWs)   bands (ev):

   -72.8842 -42.3105 -41.5263 -41.0043 -10.6811 -10.4553 -10.2666 -10.0611
     0.9145   1.2295   1.9709   2.3749   2.5954   3.4241   3.6782   4.2281
     4.4026   4.5176   4.9150   5.1649   5.9724   6.9645   7.9122   9.8125
    10.0627  15.8399

          k =-0.4996-0.1184 0.0960 (  3928 PWs)   bands (ev):

   -72.8841 -42.3105 -41.5263 -41.0043 -10.7192 -10.4756 -10.2498 -10.0255
     1.0782   1.3423   2.2136   2.4463   2.6485   3.1037   3.3967   4.1560
     4.3484   4.4906   4.8991   5.0366   5.9633   7.0933   7.9001   9.5976
    10.0777  16.0907

     the Fermi energy is     7.0451 ev

!    total energy              =    -520.62079260 Ry
     total all-electron energy =     -3720.874051 Ry
     estimated scf accuracy    <          7.6E-09 Ry
     smearing contrib. (-TS)   =      -0.00491881 Ry
     internal energy E=F+TS    =    -520.61587379 Ry

     The total energy is F=E-TS. E is the sum of the following terms:
     one-electron contribution =    -240.57042900 Ry
     hartree contribution      =     145.35689551 Ry
     xc contribution           =     -61.24957762 Ry
     ewald contribution        =    -185.65670255 Ry
     Hubbard energy            =       0.24479191 Ry
     one-center paw contrib.   =    -178.74085205 Ry

     convergence has been achieved in   8 iterations
     force_hub    :    199.06s CPU     33.14s WALL (      14 calls)
     dndtau       :    175.39s CPU     29.32s WALL (   10584 calls)
     dprojdtau    :     24.25s CPU      4.36s WALL (   10584 calls)
     calc_doverla :     96.06s CPU     15.74s WALL (   10584 calls)
     matel_dSdtau :    130.66s CPU     21.20s WALL (   21168 calls)

     Forces acting on atoms (cartesian axes, Ry/au):

     atom    1 type  1   force =    -0.00002661   -0.00020414   -0.00004165
     atom    2 type  1   force =     0.00003714   -0.00015566    0.00026788
     atom    3 type  3   force =     0.00000707   -0.00008215   -0.00027189
     atom    4 type  2   force =    -0.00006056    0.00023862    0.00019196
     atom    5 type  2   force =     0.00002051    0.00038150    0.00019032
     atom    6 type  2   force =    -0.00004435   -0.00000629   -0.00024773
     atom    7 type  2   force =     0.00006680   -0.00017188   -0.00008889

     Total force =     0.000779     Total SCF correction =     0.000066


     Computing stress (Cartesian axis) and pressure

     stres_hub    :    557.00s CPU     86.76s WALL (      14 calls)
     dprojdepsilo :    463.81s CPU     72.10s WALL (    4536 calls)
     dprojdeps1   :     46.62s CPU      7.42s WALL (    4536 calls)
     dprojdeps2   :    269.66s CPU     40.64s WALL (    4536 calls)
     dprojdeps3   :    147.38s CPU     24.03s WALL (    4536 calls)
          total   stress  (Ry/bohr**3)                   (kbar)     P=       -0.15
  -0.00000586  -0.00000020  -0.00000036           -0.86       -0.03       -0.05
  -0.00000020   0.00000132  -0.00000097           -0.03        0.19       -0.14
  -0.00000036  -0.00000097   0.00000150           -0.05       -0.14        0.22

     Energy error            =      2.6E-06 Ry
     Gradient error          =      3.8E-04 Ry/Bohr
     Cell gradient error     =      8.6E-01 kbar

     number of scf cycles    =  14
     number of bfgs steps    =  13

     enthalpy           old  =    -520.6207900143 Ry
     enthalpy           new  =    -520.6207925952 Ry

     CASE: enthalpy          _new < enthalpy          _old

     new trust radius        =       0.0016400002 bohr
     new conv_thr            =       0.0000000100 Ry

     new unit-cell volume =    487.64787 a.u.^3 (    72.26196 Ang^3 )
     density =      3.85007 g/cm^3

CELL_PARAMETERS (angstrom)
   2.961997742  -0.005128913   0.003252429
   1.491639863   6.187618567  -0.013988358
   2.963421207   3.179597716   3.936339752

ATOMIC_POSITIONS (angstrom)
Mg               3.4403336273        4.7894083504        1.4505709053
Mg               3.4347581178        1.0978000098        0.3393522610
Mn               4.9158195810        2.3245664096        2.5313851213
O                3.4433289978        6.9010371641        1.8171156958
O                4.9188277965        4.2991389913        2.8609277302
O                3.4369995173        2.7873436894        1.3583276429
O                4.9244271392        8.4054019570        3.8922822797



     Writing config-only to output data dir .\out\\qgan.save\ :
     XML data file
     NEW-OLD atomic charge density approx. for the potential
     New effective cutoffs (rho, wfc):  495.00   61.90

     Check: negative core charge=   -0.000002

     Atomic wfc used for Hubbard projectors are orthogonalized


     total cpu time spent up to now is      740.3 secs

     Self-consistent Calculation

     iteration #  1     ecut=    60.00 Ry     beta= 0.70
     Davidson diagonalization with overlap
     ethr =  1.00E-06,  avg # of iterations =  2.1

     =================== HUBBARD OCCUPATIONS ===================
     ------------------------ ATOM    3 ------------------------
     Tr[ns(  3)] =   5.23679
     eigenvalues:
       0.219  0.312  0.399  0.713  0.976
     eigenvectors (columns):
       0.535 -0.002 -0.209  0.000 -0.819
      -0.001  0.965  0.001  0.263 -0.003
      -0.806 -0.002 -0.417 -0.000 -0.420
       0.254  0.003 -0.885 -0.003  0.391
      -0.001  0.263  0.003 -0.965 -0.002
     occupation matrix ns (before diag.):
       0.734  0.002  0.276 -0.209  0.001
       0.002  0.339  0.001 -0.001 -0.102
       0.276  0.001  0.384 -0.058  0.001
      -0.209 -0.001 -0.058  0.476  0.000
       0.001 -0.102  0.001  0.000  0.685

     Number of occupied Hubbard levels =    5.2368

     Threshold (ethr) on eigenvalues was too large:
     Diagonalizing with lowered threshold

     Davidson diagonalization with overlap
     ethr =  1.38E-08,  avg # of iterations =  8.9

     total cpu time spent up to now is      747.8 secs

     total energy              =    -520.62079367 Ry
     estimated scf accuracy    <       0.00000175 Ry

     iteration #  2     ecut=    60.00 Ry     beta= 0.70
     Davidson diagonalization with overlap
     ethr =  4.07E-09,  avg # of iterations =  2.0

     total cpu time spent up to now is      750.2 secs

     total energy              =    -520.62079322 Ry
     estimated scf accuracy    <       0.00000214 Ry

     iteration #  3     ecut=    60.00 Ry     beta= 0.70
     Davidson diagonalization with overlap
     ethr =  4.07E-09,  avg # of iterations =  2.0

     total cpu time spent up to now is      752.7 secs

     total energy              =    -520.62079334 Ry
     estimated scf accuracy    <       0.00000603 Ry

     iteration #  4     ecut=    60.00 Ry     beta= 0.70
     Davidson diagonalization with overlap
     ethr =  4.07E-09,  avg # of iterations =  2.0

     total cpu time spent up to now is      755.1 secs

     total energy              =    -520.62079391 Ry
     estimated scf accuracy    <       0.00000057 Ry

     iteration #  5     ecut=    60.00 Ry     beta= 0.70
     Davidson diagonalization with overlap
     ethr =  1.32E-09,  avg # of iterations =  1.9

     total cpu time spent up to now is      757.6 secs

     total energy              =    -520.62079401 Ry
     estimated scf accuracy    <       0.00000002 Ry

     iteration #  6     ecut=    60.00 Ry     beta= 0.70
     Davidson diagonalization with overlap
     ethr =  5.32E-11,  avg # of iterations = 11.5

     total cpu time spent up to now is      762.0 secs

     total energy              =    -520.62079405 Ry
     estimated scf accuracy    <       0.00000003 Ry

     iteration #  7     ecut=    60.00 Ry     beta= 0.70
     Davidson diagonalization with overlap
     ethr =  5.32E-11,  avg # of iterations =  2.0

     total cpu time spent up to now is      764.5 secs

     End of self-consistent calculation

     =================== HUBBARD OCCUPATIONS ===================
     ------------------------ ATOM    3 ------------------------
     Tr[ns(  3)] =   5.23663
     eigenvalues:
       0.219  0.312  0.399  0.712  0.976
     eigenvectors (columns):
       0.535 -0.002 -0.209  0.000 -0.819
      -0.001  0.965  0.001  0.263 -0.003
      -0.806 -0.002 -0.417 -0.000 -0.420
       0.254  0.003 -0.885 -0.003  0.391
      -0.001  0.263  0.003 -0.965 -0.002
     occupation matrix ns (before diag.):
       0.734  0.002  0.276 -0.209  0.001
       0.002  0.339  0.001 -0.001 -0.102
       0.276  0.001  0.384 -0.058  0.000
      -0.209 -0.001 -0.058  0.476  0.000
       0.001 -0.102  0.000  0.000  0.685

     Number of occupied Hubbard levels =    5.2366

          k = 0.0000 0.0000 0.0000 (  3895 PWs)   bands (ev):

   -72.8894 -42.3168 -41.5376 -40.9260 -11.8815 -10.5531 -10.2836 -10.0598
     0.8177   1.4927   2.2393   2.7004   3.0752   3.9155   4.0945   4.3639
     4.6263   5.4143   5.6218   5.6721   6.0588   7.1392   7.9959  10.0762
    10.3367  11.7302

          k =-0.0002 0.0005 0.1876 (  3893 PWs)   bands (ev):

   -72.8893 -42.3169 -41.5376 -40.9260 -11.6848 -10.7081 -10.3543 -10.0979
     1.0149   1.7989   1.9768   3.0772   3.0818   3.8777   4.0200   4.4750
     4.5950   4.9621   5.5666   5.5960   5.7599   7.0971   8.0986   9.7856
    10.3784  12.8473

          k = 0.0004-0.0009-0.3753 (  3894 PWs)   bands (ev):

   -72.8892 -42.3169 -41.5377 -40.9260 -11.3545 -10.9821 -10.4261 -10.1512
     1.2725   1.8280   2.5162   3.0134   3.0733   3.4801   3.8720   4.5486
     4.5652   4.8290   5.4773   5.5153   5.6270   7.0540   8.1816   9.5432
    10.4210  14.4652

          k = 0.0003 0.1192-0.0965 (  3888 PWs)   bands (ev):

   -72.8893 -42.3168 -41.5376 -40.9260 -11.7765 -10.5804 -10.4194 -10.0430
     1.0398   1.5134   2.1948   2.7952   3.1103   3.9365   4.1119   4.3108
     4.6873   5.0208   5.4815   5.6243   6.0625   7.1635   7.9899  10.1416
    10.3765  12.5197

          k = 0.0001 0.1197 0.0911 (  3903 PWs)   bands (ev):

   -72.8894 -42.3169 -41.5376 -40.9260 -11.7295 -10.7899 -10.2467 -10.0529
     0.9521   1.7946   2.1057   2.8929   3.0429   3.8035   3.9159   4.4802
     4.6129   5.2150   5.5778   5.5808   5.8377   7.1340   8.0950   9.7916
    10.3378  12.4950

          k = 0.0007 0.1183-0.4718 (  3923 PWs)   bands (ev):

   -72.8893 -42.3169 -41.5377 -40.9260 -11.4049 -11.0623 -10.3254 -10.0940
     1.3102   1.6548   2.4290   3.0417   3.1499   3.5072   3.8988   4.3293
     4.5835   5.0771   5.4360   5.4927   5.6736   7.0902   8.1986   9.5538
    10.3802  13.8567

          k = 0.0005 0.1187-0.2842 (  3906 PWs)   bands (ev):

   -72.8893 -42.3169 -41.5377 -40.9260 -11.5323 -10.7874 -10.4841 -10.0833
     1.2371   1.7893   2.2194   2.9691   3.1101   3.8306   3.8956   4.4297
     4.5015   4.8969   5.4431   5.5435   5.7664   7.1241   8.1193   9.8643
    10.4181  14.0934

          k =-0.0006-0.2384 0.1931 (  3908 PWs)   bands (ev):

   -72.8893 -42.3168 -41.5377 -40.9260 -11.6427 -10.6788 -10.5086 -10.0296
     1.0174   1.8610   2.3995   2.8193   3.1479   3.6038   3.9612   4.2528
     4.5756   4.9925   5.4725   5.5758   6.0635   7.1879   7.9815  10.2112
    10.4158  13.8338

          k =-0.0008-0.2380 0.3807 (  3905 PWs)   bands (ev):

   -72.8893 -42.3169 -41.5376 -40.9260 -11.5908 -10.8596 -10.3702 -10.0408
     1.3392   1.7476   2.0053   2.9055   3.0736   3.8039   3.9377   4.4335
     4.7315   4.8774   5.4296   5.5260   5.8036   7.1593   8.1259   9.8756
    10.3776  13.4188

          k =-0.0002-0.2394-0.1822 (  3896 PWs)   bands (ev):

   -72.8894 -42.3169 -41.5376 -40.9260 -11.4474 -11.1318 -10.2301 -10.0500
     1.1574   1.8289   2.3145   3.0118   3.0266   3.7066   3.9275   4.0936
     4.5945   5.1759   5.4763   5.5516   5.7307   7.1248   8.1649   9.5442
    10.3393  13.7587

          k = 0.2497-0.0605-0.1391 (  3914 PWs)   bands (ev):

   -72.8865 -42.3138 -41.5321 -40.9651 -11.3239 -10.5805 -10.2138 -10.0421
     1.4050   1.6750   2.1272   2.4320   2.7797   3.0133   3.8353   4.0077
     4.2795   5.0097   5.2984   5.5094   6.1176   6.9798   8.0192   9.6898
    10.1028  13.9409

          k = 0.2495-0.0600 0.0485 (  3892 PWs)   bands (ev):

   -72.8865 -42.3138 -41.5320 -40.9651 -11.4229 -10.4535 -10.2593 -10.0086
     1.4219   1.8127   2.0449   2.4453   2.8257   2.8670   3.7101   3.9871
     4.2872   5.0272   5.3847   5.5590   6.0431   7.0698   7.9468   9.7573
    10.0782  13.5877

          k = 0.2501-0.0615-0.5144 (  3918 PWs)   bands (ev):

   -72.8865 -42.3138 -41.5321 -40.9651 -11.2281 -10.5495 -10.3459 -10.0615
     1.3239   1.6830   2.2009   2.5535   2.6741   3.0080   3.9974   4.1216
     4.3871   4.9233   5.0542   5.4748   6.1602   6.9685   8.0152   9.6458
    10.0337  14.7107

          k = 0.2499-0.0610-0.3268 (  3915 PWs)   bands (ev):

   -72.8865 -42.3139 -41.5321 -40.9650 -11.0426 -10.7620 -10.2969 -10.1006
     1.3359   1.6520   2.0957   2.4464   2.7319   3.3568   3.9183   4.2003
     4.3834   4.8545   4.9994   5.4604   6.1828   6.8920   8.0830   9.8103
     9.8572  15.1033

          k = 0.2500 0.0587-0.2357 (  3915 PWs)   bands (ev):

   -72.8865 -42.3138 -41.5321 -40.9651 -11.2280 -10.5496 -10.3459 -10.0615
     1.3242   1.6831   2.2011   2.5529   2.6742   3.0080   3.9970   4.1215
     4.3871   4.9235   5.0543   5.4746   6.1603   6.9690   8.0148   9.6466
    10.0333  14.7105

          k = 0.2498 0.0592-0.0480 (  3895 PWs)   bands (ev):

   -72.8865 -42.3138 -41.5320 -40.9651 -11.4229 -10.4535 -10.2593 -10.0086
     1.4218   1.8127   2.0447   2.4454   2.8254   2.8674   3.7101   3.9871
     4.2870   5.0272   5.3848   5.5590   6.0432   7.0699   7.9467   9.7574
    10.0782  13.5876

          k = 0.2504 0.0578-0.6109 (  3909 PWs)   bands (ev):

   -72.8865 -42.3138 -41.5321 -40.9651 -11.3240 -10.5804 -10.2139 -10.0421
     1.4049   1.6749   2.1271   2.4318   2.7801   3.0134   3.8354   4.0082
     4.2794   5.0095   5.2982   5.5095   6.1177   6.9796   8.0195   9.6893
    10.1032  13.9409

          k = 0.2502 0.0582-0.4233 (  3913 PWs)   bands (ev):

   -72.8865 -42.3139 -41.5321 -40.9650 -11.0426 -10.7619 -10.2969 -10.1006
     1.3359   1.6519   2.0958   2.4465   2.7318   3.3568   3.9185   4.2003
     4.3832   4.8545   4.9992   5.4605   6.1829   6.8921   8.0829   9.8107
     9.8567  15.1032

          k = 0.2491-0.2990 0.0540 (  3925 PWs)   bands (ev):

   -72.8865 -42.3138 -41.5321 -40.9651 -11.1580 -10.6486 -10.3430 -10.0465
     1.4702   1.8447   2.1101   2.4652   2.6732   3.1208   3.7057   4.0363
     4.3743   4.8957   5.1100   5.5288   6.1530   6.9796   8.0301   9.6622
    10.1177  14.7115

          k = 0.2489-0.2985 0.2416 (  3913 PWs)   bands (ev):

   -72.8865 -42.3138 -41.5321 -40.9651 -11.2896 -10.4740 -10.4037 -10.0116
     1.3835   1.9721   2.2628   2.5106   2.6656   2.8887   3.5492   3.9478
     4.4764   4.9094   5.1580   5.5869   6.1127   7.0842   7.9347   9.7059
    10.0831  14.4977

          k = 0.2495-0.2999-0.3213 (  3910 PWs)   bands (ev):

   -72.8865 -42.3138 -41.5321 -40.9651 -11.2722 -10.6434 -10.2253 -10.0306
     1.6121   1.7830   1.9362   2.5648   2.7879   3.0476   3.5672   3.8873
     4.1482   5.0687   5.3486   5.5689   6.1076   6.9840   8.0309   9.7185
    10.1871  13.8669

          k = 0.2493-0.2994-0.1337 (  3919 PWs)   bands (ev):

   -72.8864 -42.3139 -41.5321 -40.9651 -11.0640 -10.8664 -10.1960 -10.0609
     1.5725   1.7184   1.9745   2.5663   2.7525   3.1032   3.5074   4.1674
     4.2888   4.8404   5.3152   5.5383   6.1544   6.8928   8.0967   9.9087
     9.9422  14.6193

          k = 0.2494-0.1797-0.0426 (  3912 PWs)   bands (ev):

   -72.8865 -42.3138 -41.5321 -40.9651 -11.2721 -10.6434 -10.2252 -10.0307
     1.6124   1.7831   1.9363   2.5649   2.7876   3.0470   3.5674   3.8868
     4.1486   5.0686   5.3487   5.5689   6.1076   6.9843   8.0306   9.7189
    10.1868  13.8669

          k = 0.2492-0.1793 0.1451 (  3918 PWs)   bands (ev):

   -72.8865 -42.3138 -41.5321 -40.9651 -11.2896 -10.4740 -10.4036 -10.0116
     1.3836   1.9720   2.2627   2.5111   2.6651   2.8887   3.5491   3.9478
     4.4766   4.9093   5.1580   5.5869   6.1127   7.0841   7.9347   9.7058
    10.0831  14.4977

          k = 0.2498-0.1807-0.4179 (  3924 PWs)   bands (ev):

   -72.8865 -42.3138 -41.5321 -40.9651 -11.1580 -10.6485 -10.3431 -10.0465
     1.4697   1.8446   2.1101   2.4653   2.6735   3.1211   3.7057   4.0366
     4.3741   4.8958   5.1102   5.5287   6.1529   6.9792   8.0305   9.6616
    10.1181  14.7119

          k = 0.2496-0.1802-0.2302 (  3912 PWs)   bands (ev):

   -72.8864 -42.3139 -41.5321 -40.9650 -11.0640 -10.8664 -10.1960 -10.0609
     1.5725   1.7183   1.9744   2.5661   2.7528   3.1032   3.5073   4.1677
     4.2887   4.8405   5.3154   5.5381   6.1544   6.8928   8.0968   9.9084
     9.9425  14.6193

          k =-0.4994 0.1210 0.2782 (  3922 PWs)   bands (ev):

   -72.8841 -42.3108 -41.5265 -41.0038 -10.6357 -10.4370 -10.2825 -10.1024
     0.7108   1.2106   1.8407   2.2712   2.5845   3.4976   3.9001   4.2675
     4.5361   4.7623   4.8059   5.3300   5.9773   6.7960   7.9276   9.9970
    10.1055  15.2992

          k =-0.4996 0.1215 0.4659 (  3915 PWs)   bands (ev):

   -72.8841 -42.3108 -41.5265 -41.0038 -10.6815 -10.4542 -10.2674 -10.0607
     0.9142   1.2299   1.9706   2.3746   2.5957   3.4238   3.6775   4.2288
     4.4025   4.5171   4.9136   5.1632   5.9739   6.9643   7.9118   9.8129
    10.0636  15.8422

          k =-0.4990 0.1201-0.0971 (  3934 PWs)   bands (ev):

   -72.8841 -42.3108 -41.5265 -41.0038 -10.7196 -10.4746 -10.2504 -10.0253
     1.0781   1.3424   2.2139   2.4454   2.6491   3.1026   3.3974   4.1554
     4.3494   4.4908   4.8968   5.0346   5.9648   7.0933   7.8996   9.5976
    10.0788  16.0908

          k =-0.4991 0.2403 0.1817 (  3931 PWs)   bands (ev):

   -72.8841 -42.3108 -41.5265 -41.0038 -10.6355 -10.4377 -10.2816 -10.1029
     0.7755   1.1128   1.8483   2.2709   2.5738   3.6502   3.8611   4.2019
     4.5282   4.7504   4.8169   5.3256   5.9759   6.7994   7.9223  10.0117
    10.0808  15.6089

          k =-0.4993 0.2407 0.3693 (  3926 PWs)   bands (ev):

   -72.8841 -42.3108 -41.5265 -41.0038 -10.6808 -10.4567 -10.2650 -10.0614
     0.8986   1.2668   1.9636   2.2333   2.7977   3.3415   3.6752   4.2141
     4.4070   4.5179   4.9242   5.1717   5.9723   6.9691   7.9113   9.8018
    10.0772  15.6312

          k =-0.4987 0.2393-0.1936 (  3912 PWs)   bands (ev):

   -72.8841 -42.3108 -41.5265 -41.0038 -10.7215 -10.4685 -10.2562 -10.0236
     1.0920   1.3113   2.1808   2.5344   2.6892   3.0007   3.4678   4.1320
     4.2830   4.4841   4.8776   5.0960   5.9692   7.0976   7.8997   9.6081
    10.0706  16.0480

          k =-0.4989 0.2398-0.0059 (  3926 PWs)   bands (ev):

   -72.8841 -42.3108 -41.5265 -41.0038 -10.6807 -10.4568 -10.2648 -10.0615
     0.8989   1.2665   1.9635   2.2332   2.7981   3.3415   3.6753   4.2136
     4.4072   4.5181   4.9240   5.1717   5.9723   6.9692   7.9113   9.8014
    10.0773  15.6308

          k =-0.5001-0.1174 0.4713 (  3926 PWs)   bands (ev):

   -72.8841 -42.3108 -41.5265 -41.0038 -10.6357 -10.4371 -10.2823 -10.1025
     0.7111   1.2101   1.8406   2.2716   2.5846   3.4979   3.8997   4.2672
     4.5360   4.7623   4.8057   5.3301   5.9773   6.7963   7.9276   9.9963
    10.1060  15.2987

          k =-0.5003-0.1169 0.6590 (  3915 PWs)   bands (ev):

   -72.8841 -42.3108 -41.5265 -41.0038 -10.6815 -10.4541 -10.2674 -10.0607
     0.9144   1.2298   1.9706   2.3746   2.5955   3.4240   3.6777   4.2283
     4.4025   4.5172   4.9136   5.1632   5.9739   6.9646   7.9117   9.8128
    10.0637  15.8417

          k =-0.4997-0.1184 0.0960 (  3928 PWs)   bands (ev):

   -72.8841 -42.3108 -41.5265 -41.0038 -10.7196 -10.4744 -10.2506 -10.0253
     1.0780   1.3425   2.2138   2.4456   2.6489   3.1028   3.3972   4.1553
     4.3490   4.4910   4.8967   5.0349   5.9648   7.0934   7.8994   9.5980
    10.0787  16.0916

     the Fermi energy is     7.0453 ev

!    total energy              =    -520.62079406 Ry
     total all-electron energy =     -3720.874053 Ry
     estimated scf accuracy    <          3.6E-09 Ry
     smearing contrib. (-TS)   =      -0.00491513 Ry
     internal energy E=F+TS    =    -520.61587893 Ry

     The total energy is F=E-TS. E is the sum of the following terms:
     one-electron contribution =    -240.57600812 Ry
     hartree contribution      =     145.35950006 Ry
     xc contribution           =     -61.24961297 Ry
     ewald contribution        =    -185.65366698 Ry
     Hubbard energy            =       0.24478176 Ry
     one-center paw contrib.   =    -178.74087267 Ry

     convergence has been achieved in   7 iterations
     force_hub    :    213.81s CPU     35.47s WALL (      15 calls)
     dndtau       :    188.62s CPU     31.40s WALL (   11340 calls)
     dprojdtau    :     26.09s CPU      4.67s WALL (   11340 calls)
     calc_doverla :    103.08s CPU     16.87s WALL (   11340 calls)
     matel_dSdtau :    140.83s CPU     22.72s WALL (   22680 calls)

     Forces acting on atoms (cartesian axes, Ry/au):

     atom    1 type  1   force =    -0.00005418   -0.00014088   -0.00005036
     atom    2 type  1   force =     0.00003922   -0.00023905    0.00016692
     atom    3 type  3   force =    -0.00000408   -0.00006347    0.00002332
     atom    4 type  2   force =    -0.00000848    0.00007612    0.00011270
     atom    5 type  2   force =    -0.00000998    0.00024695   -0.00010897
     atom    6 type  2   force =    -0.00003731    0.00019935   -0.00003834
     atom    7 type  2   force =     0.00007480   -0.00007903   -0.00010527

     Total force =     0.000523     Total SCF correction =     0.000231
     SCF correction compared to forces is large: reduce conv_thr to get better values


     Computing stress (Cartesian axis) and pressure

     stres_hub    :    593.67s CPU     92.78s WALL (      15 calls)
     dprojdepsilo :    493.23s CPU     77.02s WALL (    4860 calls)
     dprojdeps1   :     49.58s CPU      7.92s WALL (    4860 calls)
     dprojdeps2   :    287.06s CPU     43.43s WALL (    4860 calls)
     dprojdeps3   :    156.44s CPU     25.65s WALL (    4860 calls)
          total   stress  (Ry/bohr**3)                   (kbar)     P=       -0.15
  -0.00000339   0.00000006  -0.00000028           -0.50        0.01       -0.04
   0.00000006   0.00000011  -0.00000029            0.01        0.02       -0.04
  -0.00000028  -0.00000029   0.00000028           -0.04       -0.04        0.04

     Energy error            =      1.5E-06 Ry
     Gradient error          =      2.5E-04 Ry/Bohr
     Cell gradient error     =      5.0E-01 kbar

     bfgs converged in  15 scf cycles and  14 bfgs steps
     (criteria: energy <  1.0E-04 Ry, force <  1.0E-03 Ry/Bohr, cell <  5.0E-01 kbar)

     End of BFGS Geometry Optimization

     Final enthalpy           =    -520.6207940566 Ry

     File .\out\\qgan.bfgs deleted, as requested
Begin final coordinates
     new unit-cell volume =    487.64787 a.u.^3 (    72.26196 Ang^3 )
     density =      3.85007 g/cm^3

CELL_PARAMETERS (angstrom)
   2.961997742  -0.005128913   0.003252429
   1.491639863   6.187618567  -0.013988358
   2.963421207   3.179597716   3.936339752

ATOMIC_POSITIONS (angstrom)
Mg               3.4403336273        4.7894083504        1.4505709053
Mg               3.4347581178        1.0978000098        0.3393522610
Mn               4.9158195810        2.3245664096        2.5313851213
O                3.4433289978        6.9010371641        1.8171156958
O                4.9188277965        4.2991389913        2.8609277302
O                3.4369995173        2.7873436894        1.3583276429
O                4.9244271392        8.4054019570        3.8922822797
End final coordinates



     Writing config-only to output data dir .\out\\qgan.save\ :
     XML data file

     Final scf calculation at the relaxed structure.
     The G-vectors are recalculated for the final unit cell
     Results may differ from those at the preceding step.
 
     G-vector sticks info
     --------------------
     sticks:   dense  smooth     PW     G-vecs:    dense   smooth      PW
     Sum        2499    1245    391                86589    30625    5417
 
     Using Slab Decomposition
 


     bravais-lattice index     =            0
     lattice parameter (alat)  =       5.5900  a.u.
     unit-cell volume          =     487.6479 (a.u.)^3
     number of atoms/cell      =            7
     number of atomic types    =            3
     number of electrons       =        43.00
     number of Kohn-Sham states=           26
     kinetic-energy cutoff     =      60.0000  Ry
     charge density cutoff     =     480.0000  Ry
     scf convergence threshold =      1.0E-08
     mixing beta               =       0.7000
     number of iterations used =            8  plain     mixing
     press convergence thresh. =      5.0E-01
     Exchange-correlation= SLA  PW   PBX  PBC
                           (   1   4   3   4   0   0   0)
     Hubbard projectors: ortho-atomic
     Hubbard parameters of DFT+U (Dudarev formulation) in eV:
     U(Mn-3d) =  3.9000

     Internal variables: lda_plus_u = T, lda_plus_u_kind = 0

     Internal variables: orbital_resolved = F, hub_pot_fix = F, apply_U =  F

     celldm(1)=   5.589999  celldm(2)=   0.000000  celldm(3)=   0.000000
     celldm(4)=   0.000000  celldm(5)=   0.000000  celldm(6)=   0.000000

     crystal axes: (cart. coord. in units of alat)
               a(1) = (   1.001318  -0.001734   0.001099 )  
               a(2) = (   0.504256   2.091754  -0.004729 )  
               a(3) = (   1.001799   1.074878   1.330699 )  

     reciprocal axes: (cart. coord. in units 2 pi/alat)
               b(1) = (  0.998876 -0.242056 -0.556469 )  
               b(2) = (  0.001250  0.476893 -0.386154 )  
               b(3) = ( -0.000821  0.001895  0.750572 )  


     PseudoPot. # 1 for Mg read from file:
     ..\..\pseudo\\Mg.pbe-n-kjpaw_psl.0.3.0.UPF
     MD5 check sum: d3e4124f57d03672d8f0e29aa18e2cc4
     Pseudo is Projector augmented-wave + core cor, Zval =  2.0
     Generated using &quot;atomic&quot; code by A. Dal Corso  v.6.3
     Shape of augmentation charge: PSQ
     Using radial grid of 1129 points,  4 beta functions with: 
                l(1) =   0
                l(2) =   0
                l(3) =   1
                l(4) =   1
     Q(r) pseudized with 0 coefficients 


     PseudoPot. # 2 for O  read from file:
     ..\..\pseudo\\O.pbe-n-kjpaw_psl.1.0.0.UPF
     MD5 check sum: e99d9cef9b487d1ca56f5b95ecd0fd7a
     Pseudo is Projector augmented-wave + core cor, Zval =  6.0
     Generated using &quot;atomic&quot; code by A. Dal Corso  v.6.3
     Shape of augmentation charge: PSQ
     Using radial grid of 1095 points,  4 beta functions with: 
                l(1) =   0
                l(2) =   0
                l(3) =   1
                l(4) =   1
     Q(r) pseudized with 0 coefficients 


     PseudoPot. # 3 for Mn read from file:
     ..\..\pseudo\\Mn.pbe-spn-kjpaw_psl.0.3.1.UPF
     MD5 check sum: ba19e6d7ccbc12830efad05ba8577d9c
     Pseudo is Projector augmented-wave + core cor, Zval = 15.0
     Generated using &quot;atomic&quot; code by A. Dal Corso  v.6.2.2
     Shape of augmentation charge: PSQ
     Using radial grid of 1187 points,  6 beta functions with: 
                l(1) =   0
                l(2) =   0
                l(3) =   1
                l(4) =   1
                l(5) =   2
                l(6) =   2
     Q(r) pseudized with 0 coefficients 


     atomic species   valence    mass     pseudopotential
     Mg                2.00    24.30500     Mg( 1.00)
     O                 6.00    15.99900     O ( 1.00)
     Mn               15.00    54.93800     Mn( 1.00)

     No symmetry found



   Cartesian axes

     site n.     atom                  positions (alat units)
         1        Mg     tau(   1) = (   1.1630214   1.6190826   0.4903725  )
         2        Mg     tau(   2) = (   1.1611366   0.3711166   0.1147197  )
         3        Mn     tau(   3) = (   1.6618166   0.7858309   0.8557470  )
         4        O      tau(   4) = (   1.1640340   2.3329290   0.6142847  )
         5        O      tau(   5) = (   1.6628335   1.4533447   0.9671504  )
         6        O      tau(   6) = (   1.1618943   0.9422750   0.4591892  )
         7        O      tau(   7) = (   1.6647264   2.8414868   1.3158048  )

     number of k points=    36  Marzari-Vanderbilt smearing, width (Ry)=  0.0200
                       cart. coord. in units 2pi/alat
        k(    1) = (   0.0000000   0.0000000   0.0000000), wk =   0.0312500
        k(    2) = (  -0.0002052   0.0004737   0.1876431), wk =   0.0625000
        k(    3) = (   0.0004104  -0.0009474  -0.3752862), wk =   0.0312500
        k(    4) = (   0.0003124   0.1192233  -0.0965385), wk =   0.0625000
        k(    5) = (   0.0001072   0.1196970   0.0911047), wk =   0.0625000
        k(    6) = (   0.0007229   0.1182760  -0.4718247), wk =   0.0625000
        k(    7) = (   0.0005177   0.1187497  -0.2841816), wk =   0.0625000
        k(    8) = (  -0.0006249  -0.2384467   0.1930769), wk =   0.0312500
        k(    9) = (  -0.0008301  -0.2379730   0.3807200), wk =   0.0625000
        k(   10) = (  -0.0002145  -0.2393940  -0.1822093), wk =   0.0312500
        k(   11) = (   0.2497190  -0.0605139  -0.1391172), wk =   0.0625000
        k(   12) = (   0.2495138  -0.0600402   0.0485259), wk =   0.0625000
        k(   13) = (   0.2501294  -0.0614612  -0.5144035), wk =   0.0625000
        k(   14) = (   0.2499242  -0.0609876  -0.3267604), wk =   0.0625000
        k(   15) = (   0.2500314   0.0587095  -0.2356557), wk =   0.0625000
        k(   16) = (   0.2498262   0.0591831  -0.0480126), wk =   0.0625000
        k(   17) = (   0.2504419   0.0577621  -0.6109419), wk =   0.0625000
        k(   18) = (   0.2502367   0.0582358  -0.4232988), wk =   0.0625000
        k(   19) = (   0.2490941  -0.2989606   0.0539597), wk =   0.0625000
        k(   20) = (   0.2488889  -0.2984869   0.2416028), wk =   0.0625000
        k(   21) = (   0.2495045  -0.2999079  -0.3213266), wk =   0.0625000
        k(   22) = (   0.2492993  -0.2994342  -0.1336835), wk =   0.0625000
        k(   23) = (   0.2494065  -0.1797372  -0.0425788), wk =   0.0625000
        k(   24) = (   0.2492013  -0.1792635   0.1450643), wk =   0.0625000
        k(   25) = (   0.2498170  -0.1806846  -0.4178650), wk =   0.0625000
        k(   26) = (   0.2496118  -0.1802109  -0.2302219), wk =   0.0625000
        k(   27) = (  -0.4994380   0.1210278   0.2782345), wk =   0.0312500
        k(   28) = (  -0.4996432   0.1215014   0.4658776), wk =   0.0625000
        k(   29) = (  -0.4990275   0.1200804  -0.0970517), wk =   0.0312500
        k(   30) = (  -0.4991255   0.2402511   0.1816960), wk =   0.0625000
        k(   31) = (  -0.4993308   0.2407248   0.3693392), wk =   0.0625000
        k(   32) = (  -0.4987151   0.2393037  -0.1935902), wk =   0.0625000
        k(   33) = (  -0.4989203   0.2397774  -0.0059471), wk =   0.0625000
        k(   34) = (  -0.5000629  -0.1174189   0.4713114), wk =   0.0312500
        k(   35) = (  -0.5002681  -0.1169452   0.6589545), wk =   0.0625000
        k(   36) = (  -0.4996524  -0.1183663   0.0960252), wk =   0.0312500

     Dense  grid:    86589 G-vectors     FFT dimensions: (  40,  90,  80)

     Smooth grid:    30625 G-vectors     FFT dimensions: (  27,  60,  60)

     Estimated max dynamical RAM per process >     409.62 MB

     Check: negative core charge=   -0.000002

     Initial potential from superposition of free atoms

     starting charge      42.9976, renormalised to      43.0000

     STARTING HUBBARD OCCUPATIONS:

     =================== HUBBARD OCCUPATIONS ===================
     ------------------------ ATOM    3 ------------------------
     Tr[ns(  3)] =   5.00000
     eigenvalues:
       0.500  0.500  0.500  0.500  0.500
     eigenvectors (columns):
       1.000  0.000  0.000  0.000  0.000
       0.000  1.000  0.000  0.000  0.000
       0.000  0.000  1.000  0.000  0.000
       0.000  0.000  0.000  1.000  0.000
       0.000  0.000  0.000  0.000  1.000
     occupation matrix ns (before diag.):
       0.500  0.000  0.000  0.000  0.000
       0.000  0.500  0.000  0.000  0.000
       0.000  0.000  0.500  0.000  0.000
       0.000  0.000  0.000  0.500  0.000
       0.000  0.000  0.000  0.000  0.500

     Number of occupied Hubbard levels =    5.0000

     Atomic wfc used for Hubbard projectors are orthogonalized

     Starting wfcs are   34 randomized atomic wfcs
     Checking if some PAW data can be deallocated... 

     total cpu time spent up to now is      778.1 secs

     Self-consistent Calculation

     iteration #  1     ecut=    60.00 Ry     beta= 0.70
     Davidson diagonalization with overlap
     c_bands:  1 eigenvalues not converged
     c_bands:  1 eigenvalues not converged
     c_bands:  5 eigenvalues not converged
     c_bands:  1 eigenvalues not converged
     c_bands:  5 eigenvalues not converged
     c_bands:  1 eigenvalues not converged
     c_bands:  1 eigenvalues not converged
     c_bands:  1 eigenvalues not converged
     c_bands:  1 eigenvalues not converged
     c_bands:  5 eigenvalues not converged
     c_bands:  1 eigenvalues not converged
     c_bands:  4 eigenvalues not converged
     c_bands:  5 eigenvalues not converged
     c_bands:  1 eigenvalues not converged
     ethr =  1.00E-06,  avg # of iterations = 34.1

     =================== HUBBARD OCCUPATIONS ===================
     ------------------------ ATOM    3 ------------------------
     Tr[ns(  3)] =   4.09919
     eigenvalues:
       0.088  0.177  0.225  0.577  0.983
     eigenvectors (columns):
       0.533 -0.001 -0.263  0.003 -0.804
       0.000  0.965  0.005 -0.260 -0.003
      -0.805  0.001 -0.448 -0.002 -0.388
       0.259  0.006 -0.854  0.002  0.451
      -0.003  0.260  0.003  0.965  0.000
     occupation matrix ns (before diag.):
       0.676  0.002  0.295 -0.294  0.001
       0.002  0.204  0.001 -0.002 -0.100
       0.295  0.001  0.250 -0.104 -0.001
      -0.294 -0.002 -0.104  0.370  0.001
       0.001 -0.100 -0.001  0.001  0.549

     Number of occupied Hubbard levels =    4.0992

     total cpu time spent up to now is      792.6 secs

     total energy              =    -519.25695283 Ry
     estimated scf accuracy    <       2.43122957 Ry

     iteration #  2     ecut=    60.00 Ry     beta= 0.70
     Davidson diagonalization with overlap
     ethr =  5.65E-03,  avg # of iterations =  4.1

     total cpu time spent up to now is      795.5 secs

     total energy              =    -517.66717899 Ry
     estimated scf accuracy    <      30.55739184 Ry

     iteration #  3     ecut=    60.00 Ry     beta= 0.70
     Davidson diagonalization with overlap
     ethr =  5.65E-03,  avg # of iterations =  3.2

     total cpu time spent up to now is      798.2 secs

     total energy              =    -520.50531573 Ry
     estimated scf accuracy    <       0.60268017 Ry

     iteration #  4     ecut=    60.00 Ry     beta= 0.70
     Davidson diagonalization with overlap
     ethr =  1.40E-03,  avg # of iterations =  2.2

     total cpu time spent up to now is      800.7 secs

     total energy              =    -520.57503437 Ry
     estimated scf accuracy    <       0.10585400 Ry

     iteration #  5     ecut=    60.00 Ry     beta= 0.70
     Davidson diagonalization with overlap
     ethr =  2.46E-04,  avg # of iterations =  4.1

     total cpu time spent up to now is      803.9 secs

     total energy              =    -520.60914689 Ry
     estimated scf accuracy    <       0.03518603 Ry

     iteration #  6     ecut=    60.00 Ry     beta= 0.70
     Davidson diagonalization with overlap
     ethr =  8.18E-05,  avg # of iterations =  2.0

     total cpu time spent up to now is      806.4 secs

     total energy              =    -520.61736410 Ry
     estimated scf accuracy    <       0.01792574 Ry

     iteration #  7     ecut=    60.00 Ry     beta= 0.70
     Davidson diagonalization with overlap
     ethr =  4.17E-05,  avg # of iterations =  2.0

     total cpu time spent up to now is      808.9 secs

     total energy              =    -520.61802568 Ry
     estimated scf accuracy    <       0.00597913 Ry

     iteration #  8     ecut=    60.00 Ry     beta= 0.70
     Davidson diagonalization with overlap
     ethr =  1.39E-05,  avg # of iterations =  2.1

     total cpu time spent up to now is      811.9 secs

     total energy              =    -520.61954786 Ry
     estimated scf accuracy    <       0.00182190 Ry

     iteration #  9     ecut=    60.00 Ry     beta= 0.70
     Davidson diagonalization with overlap
     ethr =  4.24E-06,  avg # of iterations =  7.6

     total cpu time spent up to now is      816.5 secs

     total energy              =    -520.62016380 Ry
     estimated scf accuracy    <       0.00044569 Ry

     iteration # 10     ecut=    60.00 Ry     beta= 0.70
     Davidson diagonalization with overlap
     ethr =  1.04E-06,  avg # of iterations =  5.5

     total cpu time spent up to now is      820.7 secs

     total energy              =    -520.62024088 Ry
     estimated scf accuracy    <       0.00012824 Ry

     iteration # 11     ecut=    60.00 Ry     beta= 0.70
     Davidson diagonalization with overlap
     ethr =  2.98E-07,  avg # of iterations =  9.1

     total cpu time spent up to now is      824.9 secs

     total energy              =    -520.62032961 Ry
     estimated scf accuracy    <       0.00002062 Ry

     iteration # 12     ecut=    60.00 Ry     beta= 0.70
     Davidson diagonalization with overlap
     c_bands:  1 eigenvalues not converged
     ethr =  4.80E-08,  avg # of iterations = 12.2

     total cpu time spent up to now is      829.5 secs

     total energy              =    -520.62035126 Ry
     estimated scf accuracy    <       0.00002375 Ry

     iteration # 13     ecut=    60.00 Ry     beta= 0.70
     Davidson diagonalization with overlap
     ethr =  4.80E-08,  avg # of iterations =  2.7

     total cpu time spent up to now is      832.3 secs

     total energy              =    -520.62035633 Ry
     estimated scf accuracy    <       0.00000062 Ry

     iteration # 14     ecut=    60.00 Ry     beta= 0.70
     Davidson diagonalization with overlap
     c_bands:  5 eigenvalues not converged
     c_bands:  3 eigenvalues not converged
     c_bands:  4 eigenvalues not converged
     c_bands:  3 eigenvalues not converged
     c_bands:  5 eigenvalues not converged
     c_bands:  4 eigenvalues not converged
     c_bands:  2 eigenvalues not converged
     c_bands:  2 eigenvalues not converged
     c_bands:  3 eigenvalues not converged
     c_bands:  1 eigenvalues not converged
     c_bands:  5 eigenvalues not converged
     ethr =  1.44E-09,  avg # of iterations = 21.8

     total cpu time spent up to now is      842.9 secs

     total energy              =    -520.62036222 Ry
     estimated scf accuracy    <       0.00000276 Ry

     iteration # 15     ecut=    60.00 Ry     beta= 0.70
     Davidson diagonalization with overlap
     ethr =  1.44E-09,  avg # of iterations =  3.4

     total cpu time spent up to now is      846.2 secs

     total energy              =    -520.62036193 Ry
     estimated scf accuracy    <       0.00000174 Ry

     iteration # 16     ecut=    60.00 Ry     beta= 0.70
     Davidson diagonalization with overlap
     ethr =  1.44E-09,  avg # of iterations =  3.8

     total cpu time spent up to now is      849.8 secs

     total energy              =    -520.62036188 Ry
     estimated scf accuracy    <       0.00000058 Ry

     iteration # 17     ecut=    60.00 Ry     beta= 0.70
     Davidson diagonalization with overlap
     ethr =  1.35E-09,  avg # of iterations =  4.9

     total cpu time spent up to now is      853.3 secs

     total energy              =    -520.62036221 Ry
     estimated scf accuracy    <       0.00000012 Ry

     iteration # 18     ecut=    60.00 Ry     beta= 0.70
     Davidson diagonalization with overlap
     ethr =  2.70E-10,  avg # of iterations =  7.9

     total cpu time spent up to now is      858.0 secs

     total energy              =    -520.62036212 Ry
     estimated scf accuracy    <       0.00000028 Ry

     iteration # 19     ecut=    60.00 Ry     beta= 0.70
     Davidson diagonalization with overlap
     ethr =  2.70E-10,  avg # of iterations =  6.8

     total cpu time spent up to now is      863.7 secs

     total energy              =    -520.62036242 Ry
     estimated scf accuracy    <       0.00000021 Ry

     iteration # 20     ecut=    60.00 Ry     beta= 0.70
     Davidson diagonalization with overlap
     ethr =  2.70E-10,  avg # of iterations =  1.9

     total cpu time spent up to now is      866.4 secs

     total energy              =    -520.62036245 Ry
     estimated scf accuracy    <       0.00000027 Ry

     iteration # 21     ecut=    60.00 Ry     beta= 0.70
     Davidson diagonalization with overlap
     ethr =  2.70E-10,  avg # of iterations =  2.1

     total cpu time spent up to now is      869.2 secs

     total energy              =    -520.62036255 Ry
     estimated scf accuracy    <       0.00000005 Ry

     iteration # 22     ecut=    60.00 Ry     beta= 0.70
     Davidson diagonalization with overlap
     ethr =  1.21E-10,  avg # of iterations =  5.0

     total cpu time spent up to now is      872.2 secs

     End of self-consistent calculation

     =================== HUBBARD OCCUPATIONS ===================
     ------------------------ ATOM    3 ------------------------
     Tr[ns(  3)] =   5.23658
     eigenvalues:
       0.219  0.312  0.399  0.712  0.976
     eigenvectors (columns):
       0.535 -0.002 -0.209  0.000 -0.819
      -0.001  0.965  0.001  0.263 -0.003
      -0.806 -0.002 -0.417 -0.000 -0.420
       0.254  0.003 -0.885 -0.003  0.391
      -0.001  0.263  0.003 -0.965 -0.002
     occupation matrix ns (before diag.):
       0.734  0.002  0.276 -0.209  0.001
       0.002  0.339  0.001 -0.001 -0.102
       0.276  0.001  0.384 -0.058  0.000
      -0.209 -0.001 -0.058  0.476  0.000
       0.001 -0.102  0.000  0.000  0.685

     Number of occupied Hubbard levels =    5.2366

          k = 0.0000 0.0000 0.0000 (  3801 PWs)   bands (ev):

   -72.8896 -42.3171 -41.5380 -40.9261 -11.8815 -10.5532 -10.2837 -10.0598
     0.8179   1.4928   2.2393   2.7005   3.0753   3.9155   4.0946   4.3639
     4.6264   5.4144   5.6221   5.6722   6.0589   7.1393   7.9961  10.0763
    10.3370  11.7302

          k =-0.0002 0.0005 0.1876 (  3831 PWs)   bands (ev):

   -72.8895 -42.3171 -41.5380 -40.9261 -11.6849 -10.7081 -10.3544 -10.0979
     1.0149   1.7989   1.9768   3.0773   3.0818   3.8777   4.0201   4.4750
     4.5951   4.9621   5.5665   5.5959   5.7599   7.0971   8.0988   9.7856
    10.3785  12.8472

          k = 0.0004-0.0009-0.3753 (  3818 PWs)   bands (ev):

   -72.8894 -42.3172 -41.5380 -40.9261 -11.3545 -10.9821 -10.4261 -10.1513
     1.2725   1.8280   2.5162   3.0135   3.0734   3.4802   3.8719   4.5487
     4.5653   4.8291   5.4773   5.5153   5.6271   7.0540   8.1818   9.5432
    10.4213  14.4653

          k = 0.0003 0.1192-0.0965 (  3822 PWs)   bands (ev):

   -72.8896 -42.3171 -41.5380 -40.9261 -11.7765 -10.5805 -10.4194 -10.0431
     1.0399   1.5135   2.1949   2.7953   3.1104   3.9365   4.1120   4.3108
     4.6874   5.0208   5.4815   5.6243   6.0625   7.1635   7.9899  10.1416
    10.3766  12.5196

          k = 0.0001 0.1197 0.0911 (  3814 PWs)   bands (ev):

   -72.8896 -42.3171 -41.5380 -40.9261 -11.7295 -10.7899 -10.2467 -10.0530
     0.9523   1.7947   2.1059   2.8930   3.0430   3.8036   3.9159   4.4802
     4.6130   5.2151   5.5778   5.5810   5.8380   7.1340   8.0952   9.7917
    10.3379  12.4950

          k = 0.0007 0.1183-0.4718 (  3826 PWs)   bands (ev):

   -72.8895 -42.3172 -41.5380 -40.9261 -11.4049 -11.0623 -10.3255 -10.0941
     1.3103   1.6549   2.4291   3.0418   3.1500   3.5074   3.8988   4.3294
     4.5835   5.0772   5.4362   5.4928   5.6737   7.0904   8.1989   9.5539
    10.3804  13.8567

          k = 0.0005 0.1187-0.2842 (  3817 PWs)   bands (ev):

   -72.8895 -42.3171 -41.5380 -40.9261 -11.5323 -10.7874 -10.4841 -10.0834
     1.2373   1.7895   2.2195   2.9692   3.1101   3.8306   3.8955   4.4297
     4.5016   4.8971   5.4432   5.5436   5.7666   7.1241   8.1196   9.8646
    10.4183  14.0934

          k =-0.0006-0.2384 0.1931 (  3818 PWs)   bands (ev):

   -72.8895 -42.3171 -41.5380 -40.9261 -11.6427 -10.6789 -10.5087 -10.0297
     1.0175   1.8611   2.3996   2.8194   3.1479   3.6039   3.9612   4.2528
     4.5758   4.9928   5.4725   5.5758   6.0636   7.1879   7.9817  10.2114
    10.4160  13.8341

          k =-0.0008-0.2380 0.3807 (  3815 PWs)   bands (ev):

   -72.8895 -42.3171 -41.5380 -40.9261 -11.5909 -10.8596 -10.3702 -10.0409
     1.3393   1.7478   2.0054   2.9056   3.0737   3.8040   3.9377   4.4336
     4.7316   4.8775   5.4296   5.5261   5.8037   7.1594   8.1261   9.8757
    10.3778  13.4188

          k =-0.0002-0.2394-0.1822 (  3830 PWs)   bands (ev):

   -72.8896 -42.3172 -41.5380 -40.9261 -11.4474 -11.1319 -10.2302 -10.0501
     1.1574   1.8291   2.3145   3.0119   3.0266   3.7067   3.9274   4.0936
     4.5944   5.1759   5.4763   5.5517   5.7308   7.1249   8.1650   9.5442
    10.3393  13.7586

          k = 0.2497-0.0605-0.1391 (  3821 PWs)   bands (ev):

   -72.8867 -42.3141 -41.5324 -40.9651 -11.3239 -10.5805 -10.2139 -10.0422
     1.4051   1.6751   2.1273   2.4321   2.7798   3.0134   3.8354   4.0078
     4.2796   5.0098   5.2986   5.5094   6.1178   6.9799   8.0195   9.6900
    10.1030  13.9409

          k = 0.2495-0.0600 0.0485 (  3822 PWs)   bands (ev):

   -72.8867 -42.3141 -41.5324 -40.9651 -11.4229 -10.4535 -10.2594 -10.0086
     1.4219   1.8127   2.0449   2.4454   2.8257   2.8670   3.7102   3.9871
     4.2872   5.0272   5.3848   5.5590   6.0433   7.0699   7.9469   9.7574
    10.0783  13.5876

          k = 0.2501-0.0615-0.5144 (  3827 PWs)   bands (ev):

   -72.8867 -42.3141 -41.5325 -40.9651 -11.2281 -10.5496 -10.3460 -10.0616
     1.3240   1.6831   2.2010   2.5536   2.6741   3.0081   3.9974   4.1216
     4.3873   4.9233   5.0543   5.4748   6.1603   6.9687   8.0154   9.6461
    10.0339  14.7107

          k = 0.2499-0.0610-0.3268 (  3844 PWs)   bands (ev):

   -72.8867 -42.3141 -41.5325 -40.9651 -11.0426 -10.7620 -10.2970 -10.1007
     1.3361   1.6521   2.0957   2.4465   2.7320   3.3568   3.9183   4.2004
     4.3834   4.8545   4.9995   5.4604   6.1828   6.8921   8.0831   9.8104
     9.8572  15.1032

          k = 0.2500 0.0587-0.2357 (  3827 PWs)   bands (ev):

   -72.8867 -42.3141 -41.5325 -40.9651 -11.2280 -10.5497 -10.3460 -10.0616
     1.3243   1.6832   2.2011   2.5530   2.6743   3.0081   3.9971   4.1216
     4.3873   4.9235   5.0544   5.4747   6.1604   6.9691   8.0151   9.6467
    10.0335  14.7105

          k = 0.2498 0.0592-0.0480 (  3822 PWs)   bands (ev):

   -72.8867 -42.3141 -41.5324 -40.9651 -11.4229 -10.4535 -10.2594 -10.0086
     1.4219   1.8128   2.0447   2.4455   2.8254   2.8675   3.7101   3.9872
     4.2871   5.0272   5.3849   5.5590   6.0433   7.0700   7.9468   9.7575
    10.0783  13.5876

          k = 0.2504 0.0578-0.6109 (  3821 PWs)   bands (ev):

   -72.8867 -42.3141 -41.5324 -40.9651 -11.3240 -10.5805 -10.2139 -10.0421
     1.4050   1.6750   2.1272   2.4319   2.7802   3.0134   3.8355   4.0083
     4.2794   5.0096   5.2983   5.5096   6.1179   6.9797   8.0197   9.6895
    10.1033  13.9409

          k = 0.2502 0.0582-0.4233 (  3843 PWs)   bands (ev):

   -72.8867 -42.3141 -41.5325 -40.9651 -11.0427 -10.7620 -10.2969 -10.1007
     1.3361   1.6520   2.0959   2.4466   2.7318   3.3568   3.9185   4.2003
     4.3832   4.8545   4.9992   5.4606   6.1829   6.8922   8.0831   9.8108
     9.8568  15.1031

          k = 0.2491-0.2990 0.0540 (  3837 PWs)   bands (ev):

   -72.8867 -42.3141 -41.5325 -40.9651 -11.1580 -10.6486 -10.3431 -10.0466
     1.4703   1.8448   2.1102   2.4654   2.6733   3.1209   3.7058   4.0364
     4.3745   4.8958   5.1101   5.5289   6.1531   6.9797   8.0304   9.6623
    10.1178  14.7115

          k = 0.2489-0.2985 0.2416 (  3835 PWs)   bands (ev):

   -72.8867 -42.3141 -41.5325 -40.9651 -11.2896 -10.4740 -10.4037 -10.0117
     1.3836   1.9722   2.2628   2.5107   2.6656   2.8888   3.5492   3.9478
     4.4766   4.9095   5.1581   5.5870   6.1128   7.0843   7.9348   9.7061
    10.0832  14.4977

          k = 0.2495-0.2999-0.3213 (  3836 PWs)   bands (ev):

   -72.8867 -42.3141 -41.5324 -40.9651 -11.2722 -10.6434 -10.2253 -10.0307
     1.6121   1.7830   1.9363   2.5648   2.7879   3.0475   3.5673   3.8873
     4.1483   5.0688   5.3487   5.5689   6.1077   6.9841   8.0310   9.7186
    10.1872  13.8669

          k = 0.2493-0.2994-0.1337 (  3816 PWs)   bands (ev):

   -72.8867 -42.3141 -41.5324 -40.9651 -11.0641 -10.8664 -10.1961 -10.0610
     1.5726   1.7185   1.9746   2.5664   2.7526   3.1033   3.5075   4.1675
     4.2889   4.8406   5.3154   5.5384   6.1546   6.8930   8.0969   9.9090
     9.9425  14.6195

          k = 0.2494-0.1797-0.0426 (  3836 PWs)   bands (ev):

   -72.8867 -42.3141 -41.5324 -40.9651 -11.2722 -10.6434 -10.2253 -10.0307
     1.6124   1.7832   1.9364   2.5650   2.7876   3.0470   3.5674   3.8868
     4.1487   5.0687   5.3488   5.5690   6.1077   6.9843   8.0308   9.7190
    10.1870  13.8669

          k = 0.2492-0.1793 0.1451 (  3834 PWs)   bands (ev):

   -72.8867 -42.3141 -41.5325 -40.9651 -11.2896 -10.4740 -10.4037 -10.0117
     1.3837   1.9722   2.2628   2.5112   2.6651   2.8888   3.5491   3.9479
     4.4767   4.9094   5.1581   5.5870   6.1128   7.0842   7.9349   9.7060
    10.0832  14.4977

          k = 0.2498-0.1807-0.4179 (  3837 PWs)   bands (ev):

   -72.8867 -42.3141 -41.5325 -40.9651 -11.1580 -10.6486 -10.3431 -10.0466
     1.4698   1.8447   2.1102   2.4655   2.6736   3.1211   3.7057   4.0367
     4.3742   4.8959   5.1102   5.5288   6.1530   6.9793   8.0307   9.6618
    10.1182  14.7119

          k = 0.2496-0.1802-0.2302 (  3816 PWs)   bands (ev):

   -72.8867 -42.3141 -41.5324 -40.9651 -11.0640 -10.8664 -10.1961 -10.0610
     1.5726   1.7184   1.9746   2.5662   2.7529   3.1033   3.5074   4.1678
     4.2888   4.8406   5.3156   5.5382   6.1545   6.8929   8.0970   9.9087
     9.9428  14.6193

          k =-0.4994 0.1210 0.2782 (  3854 PWs)   bands (ev):

   -72.8843 -42.3111 -41.5269 -41.0038 -10.6357 -10.4371 -10.2826 -10.1025
     0.7108   1.2106   1.8408   2.2713   2.5846   3.4977   3.9002   4.2675
     4.5361   4.7624   4.8060   5.3301   5.9772   6.7960   7.9277   9.9970
    10.1057  15.2992

          k =-0.4996 0.1215 0.4659 (  3836 PWs)   bands (ev):

   -72.8843 -42.3110 -41.5269 -41.0038 -10.6815 -10.4543 -10.2674 -10.0608
     0.9143   1.2299   1.9707   2.3747   2.5958   3.4239   3.6777   4.2288
     4.4025   4.5172   4.9137   5.1632   5.9739   6.9644   7.9120   9.8129
    10.0638  15.8422

          k =-0.4990 0.1201-0.0971 (  3826 PWs)   bands (ev):

   -72.8843 -42.3110 -41.5269 -41.0039 -10.7196 -10.4746 -10.2505 -10.0253
     1.0782   1.3425   2.2140   2.4455   2.6492   3.1027   3.3975   4.1555
     4.3495   4.4909   4.8969   5.0348   5.9649   7.0935   7.8998   9.5979
    10.0791  16.0912

          k =-0.4991 0.2403 0.1817 (  3844 PWs)   bands (ev):

   -72.8843 -42.3111 -41.5269 -41.0038 -10.6355 -10.4378 -10.2816 -10.1030
     0.7756   1.1129   1.8484   2.2709   2.5740   3.6504   3.8612   4.2019
     4.5282   4.7505   4.8170   5.3256   5.9759   6.7994   7.9225  10.0119
    10.0810  15.6089

          k =-0.4993 0.2407 0.3693 (  3834 PWs)   bands (ev):

   -72.8843 -42.3110 -41.5269 -41.0038 -10.6808 -10.4567 -10.2650 -10.0615
     0.8987   1.2669   1.9637   2.2334   2.7979   3.3417   3.6754   4.2141
     4.4071   4.5180   4.9244   5.1718   5.9723   6.9692   7.9115   9.8019
    10.0774  15.6312

          k =-0.4987 0.2393-0.1936 (  3823 PWs)   bands (ev):

   -72.8843 -42.3110 -41.5269 -41.0038 -10.7215 -10.4686 -10.2563 -10.0236
     1.0920   1.3113   2.1809   2.5344   2.6893   3.0008   3.4679   4.1321
     4.2831   4.4841   4.8777   5.0961   5.9692   7.0978   7.8999   9.6083
    10.0708  16.0482

          k =-0.4989 0.2398-0.0059 (  3834 PWs)   bands (ev):

   -72.8843 -42.3110 -41.5269 -41.0038 -10.6807 -10.4568 -10.2649 -10.0615
     0.8989   1.2666   1.9637   2.2333   2.7982   3.3417   3.6755   4.2136
     4.4073   4.5182   4.9241   5.1718   5.9723   6.9692   7.9115   9.8016
    10.0776  15.6308

          k =-0.5001-0.1174 0.4713 (  3854 PWs)   bands (ev):

   -72.8843 -42.3111 -41.5269 -41.0038 -10.6357 -10.4371 -10.2824 -10.1026
     0.7111   1.2102   1.8407   2.2717   2.5847   3.4980   3.8998   4.2672
     4.5361   4.7624   4.8058   5.3301   5.9773   6.7963   7.9277   9.9964
    10.1061  15.2987

          k =-0.5003-0.1169 0.6590 (  3836 PWs)   bands (ev):

   -72.8843 -42.3110 -41.5269 -41.0038 -10.6815 -10.4542 -10.2675 -10.0608
     0.9144   1.2298   1.9707   2.3747   2.5957   3.4241   3.6779   4.2283
     4.4026   4.5173   4.9137   5.1633   5.9739   6.9647   7.9119   9.8129
    10.0639  15.8417

          k =-0.4997-0.1184 0.0960 (  3824 PWs)   bands (ev):

   -72.8843 -42.3110 -41.5269 -41.0039 -10.7196 -10.4745 -10.2506 -10.0253
     1.0782   1.3425   2.2139   2.4457   2.6491   3.1029   3.3974   4.1555
     4.3491   4.4911   4.8968   5.0351   5.9648   7.0936   7.8997   9.5982
    10.0791  16.0912

     the Fermi energy is     7.0454 ev

!    total energy              =    -520.62036257 Ry
     total all-electron energy =     -3720.873621 Ry
     estimated scf accuracy    <          3.4E-09 Ry
     smearing contrib. (-TS)   =      -0.00491494 Ry
     internal energy E=F+TS    =    -520.61544763 Ry

     The total energy is F=E-TS. E is the sum of the following terms:
     one-electron contribution =    -240.57452817 Ry
     hartree contribution      =     145.35860495 Ry
     xc contribution           =     -61.24944288 Ry
     ewald contribution        =    -185.65366698 Ry
     Hubbard energy            =       0.24477969 Ry
     one-center paw contrib.   =    -178.74119424 Ry

     convergence has been achieved in  22 iterations
     force_hub    :    228.02s CPU     37.69s WALL (      16 calls)
     dndtau       :    201.17s CPU     33.38s WALL (   12096 calls)
     dprojdtau    :     27.81s CPU      4.98s WALL (   12096 calls)
     calc_doverla :    110.69s CPU     17.92s WALL (   12096 calls)
     matel_dSdtau :    150.48s CPU     24.17s WALL (   24192 calls)

     Forces acting on atoms (cartesian axes, Ry/au):

     atom    1 type  1   force =    -0.00005489   -0.00013044   -0.00005074
     atom    2 type  1   force =     0.00003781   -0.00023728    0.00016495
     atom    3 type  3   force =     0.00000123    0.00000767    0.00008260
     atom    4 type  2   force =    -0.00001503    0.00000179    0.00007182
     atom    5 type  2   force =    -0.00000160    0.00022922   -0.00008549
     atom    6 type  2   force =    -0.00005035    0.00018935   -0.00006555
     atom    7 type  2   force =     0.00008282   -0.00006031   -0.00011759

     Total force =     0.000497     Total SCF correction =     0.000114
     SCF correction compared to forces is large: reduce conv_thr to get better values


     Computing stress (Cartesian axis) and pressure

     stres_hub    :    632.44s CPU     98.24s WALL (      16 calls)
     dprojdepsilo :    525.00s CPU     81.51s WALL (    5184 calls)
     dprojdeps1   :     53.17s CPU      8.40s WALL (    5184 calls)
     dprojdeps2   :    303.98s CPU     45.94s WALL (    5184 calls)
     dprojdeps3   :    167.67s CPU     27.15s WALL (    5184 calls)
          total   stress  (Ry/bohr**3)                   (kbar)     P=       -0.45
  -0.00000470  -0.00000009  -0.00000016           -0.69       -0.01       -0.02
  -0.00000009  -0.00000199  -0.00000039           -0.01       -0.29       -0.06
  -0.00000016  -0.00000039  -0.00000242           -0.02       -0.06       -0.36


     Writing all to output data dir .\out\\qgan.save\ :
     XML data file, charge density, pseudopotentials, collected wavefunctions
 
     init_run     :     29.94s CPU      4.94s WALL (       2 calls)
     electrons    :   5102.56s CPU    693.42s WALL (      16 calls)
     update_pot   :     14.69s CPU      2.69s WALL (      14 calls)
     forces       :    263.27s CPU     44.18s WALL (      16 calls)
     stress       :    821.69s CPU    127.77s WALL (      16 calls)

     Called by init_run:
     wfcinit      :     22.75s CPU      3.34s WALL (       2 calls)
     potinit      :      3.17s CPU      0.41s WALL (       2 calls)
     hinit0       :      1.45s CPU      0.76s WALL (       2 calls)

     Called by electrons:
     c_bands      :   3829.77s CPU    506.19s WALL (     208 calls)
     sum_band     :    814.64s CPU    114.83s WALL (     208 calls)
     v_of_rho     :     32.00s CPU      5.30s WALL (     216 calls)
     newd         :    249.22s CPU     40.69s WALL (     216 calls)
     PAW_pot      :    207.58s CPU     32.50s WALL (     230 calls)
     mix_rho      :      7.05s CPU      0.95s WALL (     208 calls)

     Called by c_bands:
     init_us_2    :    275.11s CPU     39.55s WALL (   18432 calls)
     cegterg      :   3365.98s CPU    442.66s WALL (    7558 calls)

     Called by *egterg:
     cdiaghg      :    137.72s CPU     17.77s WALL (   42355 calls)
     h_psi        :   2580.73s CPU    339.91s WALL (   43250 calls)
     s_psi        :     85.47s CPU     12.56s WALL (   46130 calls)
     g_psi        :     16.28s CPU      2.22s WALL (   35620 calls)

     Called by h_psi:
     h_psi:calbec :     86.47s CPU     10.86s WALL (   43250 calls)
     vloc_psi     :   2306.25s CPU    304.87s WALL (   43250 calls)
                                        0.00s GPU  (   43250 calls)
     add_vuspsi   :     93.45s CPU     12.41s WALL (   43250 calls)
     vhpsi        :     52.94s CPU      6.51s WALL (   43250 calls)

     General routines
     calbec       :    640.30s CPU     96.41s WALL (  508060 calls)
     fft          :     11.25s CPU      1.95s WALL (    3198 calls)
     ffts         :      0.80s CPU      0.11s WALL (     424 calls)
     fftw         :   1833.97s CPU    258.06s WALL ( 1515530 calls)
     interpolate  :      3.56s CPU      0.48s WALL (     216 calls)
 
     Parallel routines

     Hubbard U routines
     new_ns       :     14.64s CPU      1.94s WALL (     208 calls)
     vhpsi        :     52.94s CPU      6.51s WALL (   43250 calls)
     force_hub    :    228.02s CPU     37.69s WALL (      16 calls)
     stres_hub    :    632.44s CPU     98.24s WALL (      16 calls)
 
     PWSCF        :      1h44m CPU  14m42.17s WALL

 
   This run was terminated on:  13:25: 2  18Apr2026            

=------------------------------------------------------------------------------=
   JOB DONE.
=------------------------------------------------------------------------------=
