Mg2 Mn1 O3
1.0
   5.6550007425839137    1.2815283331750051    1.5320043551059550
   0.9582708628032467    3.9909688665473659    4.2438866595790534
  -0.0274069684043528    0.1362693653645761    6.1805384388191289
Mg Mn O
2 1 3
direct
   0.4874474038380889    0.4465652504705505    0.5407145308090121 Mg
   0.0693820680858038    0.1748956056839762   -0.0827163398282693 Mg
   0.1251492421870923    0.1392003841755284    0.4884758839702004 Mn
   0.1969212283224814    0.9337830410209511    0.3234043684507023 O
   0.8270866845504453    0.2769552338425680    0.6769220857931130 O
   0.3506835627366761    0.1270348016738779    0.6878503721537884 O
