Mg2 Mn1 O4
1.0
   3.0539238745104864    0.0928506962093090    1.2456843788708449
   0.0024428255272690    5.0383694284940095    4.0672665159213119
  -0.1387321142232410    0.2221121449484792    5.6144102882166376
Mg Mn O
2 1 4
direct
   0.4902761818391733    0.5850815511724615    0.3812082975973307 Mg
  -0.1241528045066008    0.0778718740715776    0.1509143129595832 Mg
   0.1059161152273741    0.0897081215918314    0.6008443426823142 Mn
   0.3046375534289618    0.8992281425629517    0.4222134362203271 O
   0.9195070261587648    0.3507514582402854    0.6758772012258918 O
   0.6570538676620148    0.2634681886366471    0.3582115087803684 O
   0.0898518868996290   -0.1860842775825933    0.0341786979792473 O
