Mg1 Mn1 O3
1.0
   3.5175891398713688    0.5206450347805875    1.3700075694528913
  -0.2140218868509122    4.0634237067245973    4.2308058179749501
  -0.1111848159312675    0.9776220067658994    5.1334063418511251
Mg Mn O
1 1 3
direct
   0.3925900618020408    0.4165224133142625    0.9696784582857773 Mg
   0.0810809319291938    0.8726574150462193    0.1333399118403582 Mn
   0.5485930675312313    0.8520093203493804    0.2203921388742758 O
   0.9644118304530092    0.3880190201138723    0.8523558361938892 O
   0.2540281413328190   -0.0365464257538196    0.6876255538592102 O
