Mg2 Mn1 O3
1.0
   2.3418491400790105    0.6807221135853359    1.9149154526791865
   0.2956546559235954    5.5172469640157376    2.9143987027795690
  -0.8867435487335938    0.5263190630622852    6.2023636019802781
Mg Mn O
2 1 3
direct
  -0.4117254567351875    0.6970038229890448    0.6067769429733140 Mg
  -0.0664998059045293    0.0039567324654558   -0.0830536498458286 Mg
   0.7550415531582521    0.4834227804825323    0.1258230083696230 Mn
   0.5930562854777935    0.3587278910177877    0.9225992254702872 O
   0.8854148772798901    0.6890932965313551    0.2558661511826889 O
   0.7508561846571535    0.8769126703457395    0.7386667961906107 O
