Mg2 Mn1 O3
1.0
   4.7888250386026883    0.6682242202381715    1.8114284510597083
   0.6595951662740879    3.7234210815594713    4.2178832495316705
   0.4731764063011058    0.7592704814888427    5.5906035514302683
Mg Mn O
2 1 3
direct
   0.4540583461626663    0.3683104158474588    0.6343768896759283 Mg
  -0.1614890435582866   -0.0147359719974577    0.2452169769702015 Mg
   0.1509021741729922    0.1683111784750598    0.4496363951637981 Mn
   0.2352019440859336    0.9823676764666617    0.2336380617324505 O
   0.8349782651620556    0.3785388751828695    0.6391610203302579 O
   0.5328382295557346    0.1963348640202827    0.4195909191987765 O
