Mg1 Mn1 O2
1.0
   6.4646774199435777    0.5732446137557768    2.3113784460687432
  -0.4474183806338745    3.0933221312202401   -1.2324992394898835
   0.1202963763503441   -0.2612075799779893    3.4421522821088137
Mg Mn O
1 1 2
direct
   0.5430632301167765    0.5301964615225068    0.4548817547316772 Mg
   0.1952897259508864    0.1823709149766346    0.0593984109450087 Mn
   0.5564736778604252    0.1912909883224225    0.7976504232679503 O
   0.2118271427171456    0.5257933650770567    0.6833285567792133 O
