Mg1 Mn1 O2
1.0
   3.7602084784546861    0.3822953195610083    1.2986504563165437
  -0.1268973700679485    3.7546064683837685    3.6230270023847448
  -0.2930070498566346    0.0151647591557659    5.1956620709632091
Mg Mn O
1 1 2
direct
   0.4413426327697381    0.3990245590027108    0.8592765654145376 Mg
  -0.0172989683828296    0.8379459009950626    0.3016827884777377 Mn
   0.4292310450015508    0.9148647066510477    0.3756999836721817 O
   0.9806201579491646    0.3385607385828387    0.8029663467976816 O
