Mg2 Mn1 O4
1.0
   3.2402841356014802    0.3153095456521157    1.1879114856418422
   0.0603818992010737    3.9476578741139901    3.8249190140172655
  -0.4627457136822387   -0.3495684483084078    6.3656876560052105
Mg Mn O
2 1 4
direct
   0.4132736147535574    0.5220345575452466    0.4527892251488134 Mg
  -0.2159978250931526    0.2878255125316831   -0.0526947207210508 Mg
   0.1439391542000590    0.0785974012659430    0.4356301774244140 Mn
   0.2204168841773640    0.6432081803372450    0.7206299719766784 O
   0.9519093306673196    0.2819624091518026    0.6150835444852630 O
   0.6162528414601800    0.2758587235253111    0.2925096513623933 O
   0.3145976804443231    0.0040980213180713    0.1687253644497408 O
