Gamma-centered 3x3x3
0
Gamma
  3  3  3
  0  0  0
