Mg1 Mn1 O2
1.0
   3.7587883883853639    0.3813252574880763    1.2974794555808480
  -0.1245033138542563    3.7575526989951431    3.6193182057342135
  -0.2924762349326844    0.0168153041075252    5.1942198087931581
Mg Mn O
1 1 2
direct
   0.4408331577591881    0.3978641044813424    0.8588095220925388 Mg
  -0.0179037959877033    0.8368033374694593    0.3011162147269835 Mn
   0.4283429938512460    0.9138097386724605    0.3752244303995093 O
   0.9799682640591547    0.3373648436577747    0.8023034068443509 O
