
     Program PWSCF v.7.5 starts on 18Apr2026 at 13:25: 2 
        Git branch: HEAD
        Last git commit: 770a0b2d12928a67048e2f3da8d10d057e52179e-dirty
        Last git commit date: Tue Aug 19 09:57:12 2025 +0000
        Last git commit subject: Merge branch 'QE-7.5-RC' into 'master'

     This program is part of the open-source Quantum ESPRESSO suite
     for quantum simulation of materials; please cite
         "P. Giannozzi et al., J. Phys.:Condens. Matter 21 395502 (2009);
         "P. Giannozzi et al., J. Phys.:Condens. Matter 29 465901 (2017);
         "P. Giannozzi et al., J. Chem. Phys. 152 154105 (2020);
          URL http://www.quantum-espresso.org", 
     in publications or presentations arising from this work. More details at
     http://www.quantum-espresso.org/quote

     Parallel version (MPI & OpenMP), running on      16 processor cores
     Number of MPI processes:                 1
     Threads/MPI process:                    16

     MPI processes distributed on     1 nodes
     0 MiB available memory on the printing compute node when the environment starts
 
     Reading input from pw_relax.in

     Current dimensions of program PWSCF are:
     Max number of different atomic species (ntypx) = 10
     Max number of k-points (npk) =  40000
     Max angular momentum in pseudopotentials (lmaxx) =  4
     file Mg.pbe-n-kjpaw_psl.0.3.0.UPF: wavefunction(s)  3S renormalized
     file O.pbe-n-kjpaw_psl.1.0.0.UPF: wavefunction(s)  2S 2P renormalized
     file Mn.pbe-spn-kjpaw_psl.0.3.1.UPF: wavefunction(s)  3P 3D renormalized
 
     Subspace diagonalization in iterative solution of the eigenvalue problem:
     a serial algorithm will be used

 
     G-vector sticks info
     --------------------
     sticks:   dense  smooth     PW     G-vecs:    dense   smooth      PW
     Sum        2523    1255    391                88591    31313    5519
 
     Using Slab Decomposition
 


     bravais-lattice index     =            0
     lattice parameter (alat)  =       5.5903  a.u.
     unit-cell volume          =     498.6250 (a.u.)^3
     number of atoms/cell      =            7
     number of atomic types    =            3
     number of electrons       =        43.00
     number of Kohn-Sham states=           26
     kinetic-energy cutoff     =      60.0000  Ry
     charge density cutoff     =     480.0000  Ry
     scf convergence threshold =      1.0E-06
     mixing beta               =       0.7000
     number of iterations used =            8  plain     mixing
     energy convergence thresh.=      1.0E-04
     force convergence thresh. =      1.0E-03
     press convergence thresh. =      5.0E-01
     Exchange-correlation= SLA  PW   PBX  PBC
                           (   1   4   3   4   0   0   0)
     nstep                     =           50

     Hubbard projectors: ortho-atomic
     Hubbard parameters of DFT+U (Dudarev formulation) in eV:
     U(Mn-3d) =  3.9000

     Internal variables: lda_plus_u = T, lda_plus_u_kind = 0

     Internal variables: orbital_resolved = F, hub_pot_fix = F, apply_U =  F

     celldm(1)=   5.590314  celldm(2)=   0.000000  celldm(3)=   0.000000
     celldm(4)=   0.000000  celldm(5)=   0.000000  celldm(6)=   0.000000

     crystal axes: (cart. coord. in units of alat)
               a(1) = (   1.000000   0.000000   0.000000 )  
               a(2) = (   0.507038   2.110172   0.000000 )  
               a(3) = (   0.999641   1.088512   1.352532 )  

     reciprocal axes: (cart. coord. in units 2 pi/alat)
               b(1) = (  1.000000 -0.240283 -0.545710 )  
               b(2) = (  0.000000  0.473895 -0.381389 )  
               b(3) = (  0.000000  0.000000  0.739354 )  


     PseudoPot. # 1 for Mg read from file:
     ..\..\pseudo\\Mg.pbe-n-kjpaw_psl.0.3.0.UPF
     MD5 check sum: d3e4124f57d03672d8f0e29aa18e2cc4
     Pseudo is Projector augmented-wave + core cor, Zval =  2.0
     Generated using &quot;atomic&quot; code by A. Dal Corso  v.6.3
     Shape of augmentation charge: PSQ
     Using radial grid of 1129 points,  4 beta functions with: 
                l(1) =   0
                l(2) =   0
                l(3) =   1
                l(4) =   1
     Q(r) pseudized with 0 coefficients 


     PseudoPot. # 2 for O  read from file:
     ..\..\pseudo\\O.pbe-n-kjpaw_psl.1.0.0.UPF
     MD5 check sum: e99d9cef9b487d1ca56f5b95ecd0fd7a
     Pseudo is Projector augmented-wave + core cor, Zval =  6.0
     Generated using &quot;atomic&quot; code by A. Dal Corso  v.6.3
     Shape of augmentation charge: PSQ
     Using radial grid of 1095 points,  4 beta functions with: 
                l(1) =   0
                l(2) =   0
                l(3) =   1
                l(4) =   1
     Q(r) pseudized with 0 coefficients 


     PseudoPot. # 3 for Mn read from file:
     ..\..\pseudo\\Mn.pbe-spn-kjpaw_psl.0.3.1.UPF
     MD5 check sum: ba19e6d7ccbc12830efad05ba8577d9c
     Pseudo is Projector augmented-wave + core cor, Zval = 15.0
     Generated using &quot;atomic&quot; code by A. Dal Corso  v.6.2.2
     Shape of augmentation charge: PSQ
     Using radial grid of 1187 points,  6 beta functions with: 
                l(1) =   0
                l(2) =   0
                l(3) =   1
                l(4) =   1
                l(5) =   2
                l(6) =   2
     Q(r) pseudized with 0 coefficients 


     atomic species   valence    mass     pseudopotential
     Mg                2.00    24.30500     Mg( 1.00)
     O                 6.00    15.99900     O ( 1.00)
     Mn               15.00    54.93800     Mn( 1.00)

     No symmetry found



   Cartesian axes

     site n.     atom                  positions (alat units)
         1        Mg     tau(   1) = (   1.1583116   1.6572358   0.5216280  )
         2        Mg     tau(   2) = (   0.1623112   0.3672278   0.1351856  )
         3        Mn     tau(   3) = (   1.6622786   0.8139695   0.8658657  )
         4        O      tau(   4) = (   1.1702632   2.3476292   0.6036274  )
         5        O      tau(   5) = (   1.6603184   1.4763803   0.9908467  )
         6        O      tau(   6) = (   1.1615436   0.9593955   0.4687454  )
         7        O      tau(   7) = (   1.6686398   2.8588931   1.3269347  )

     number of k points=    36  Marzari-Vanderbilt smearing, width (Ry)=  0.0200
                       cart. coord. in units 2pi/alat
        k(    1) = (   0.0000000   0.0000000   0.0000000), wk =   0.0312500
        k(    2) = (   0.0000000   0.0000000   0.1848385), wk =   0.0625000
        k(    3) = (   0.0000000   0.0000000  -0.3696771), wk =   0.0312500
        k(    4) = (   0.0000000   0.1184738  -0.0953472), wk =   0.0625000
        k(    5) = (   0.0000000   0.1184738   0.0894913), wk =   0.0625000
        k(    6) = (   0.0000000   0.1184738  -0.4650243), wk =   0.0625000
        k(    7) = (   0.0000000   0.1184738  -0.2801858), wk =   0.0625000
        k(    8) = (   0.0000000  -0.2369475   0.1906944), wk =   0.0312500
        k(    9) = (   0.0000000  -0.2369475   0.3755330), wk =   0.0625000
        k(   10) = (   0.0000000  -0.2369475  -0.1789827), wk =   0.0312500
        k(   11) = (   0.2500000  -0.0600707  -0.1364275), wk =   0.0625000
        k(   12) = (   0.2500000  -0.0600707   0.0484111), wk =   0.0625000
        k(   13) = (   0.2500000  -0.0600707  -0.5061046), wk =   0.0625000
        k(   14) = (   0.2500000  -0.0600707  -0.3212660), wk =   0.0625000
        k(   15) = (   0.2500000   0.0584030  -0.2317747), wk =   0.0625000
        k(   16) = (   0.2500000   0.0584030  -0.0469362), wk =   0.0625000
        k(   17) = (   0.2500000   0.0584030  -0.6014518), wk =   0.0625000
        k(   18) = (   0.2500000   0.0584030  -0.4166133), wk =   0.0625000
        k(   19) = (   0.2500000  -0.2970183   0.0542670), wk =   0.0625000
        k(   20) = (   0.2500000  -0.2970183   0.2391055), wk =   0.0625000
        k(   21) = (   0.2500000  -0.2970183  -0.3154101), wk =   0.0625000
        k(   22) = (   0.2500000  -0.2970183  -0.1305716), wk =   0.0625000
        k(   23) = (   0.2500000  -0.1785445  -0.0410803), wk =   0.0625000
        k(   24) = (   0.2500000  -0.1785445   0.1437583), wk =   0.0625000
        k(   25) = (   0.2500000  -0.1785445  -0.4107574), wk =   0.0625000
        k(   26) = (   0.2500000  -0.1785445  -0.2259188), wk =   0.0625000
        k(   27) = (  -0.5000000   0.1201415   0.2728550), wk =   0.0312500
        k(   28) = (  -0.5000000   0.1201415   0.4576935), wk =   0.0625000
        k(   29) = (  -0.5000000   0.1201415  -0.0968221), wk =   0.0312500
        k(   30) = (  -0.5000000   0.2386153   0.1775078), wk =   0.0625000
        k(   31) = (  -0.5000000   0.2386153   0.3623463), wk =   0.0625000
        k(   32) = (  -0.5000000   0.2386153  -0.1921693), wk =   0.0625000
        k(   33) = (  -0.5000000   0.2386153  -0.0073308), wk =   0.0625000
        k(   34) = (  -0.5000000  -0.1168060   0.4635494), wk =   0.0312500
        k(   35) = (  -0.5000000  -0.1168060   0.6483880), wk =   0.0625000
        k(   36) = (  -0.5000000  -0.1168060   0.0938723), wk =   0.0312500

     Dense  grid:    88591 G-vectors     FFT dimensions: (  40,  90,  80)

     Smooth grid:    31313 G-vectors     FFT dimensions: (  27,  60,  60)

     Estimated max dynamical RAM per process >     416.27 MB

     Check: negative core charge=   -0.000002

     Initial potential from superposition of free atoms

     starting charge      42.9976, renormalised to      43.0000

     STARTING HUBBARD OCCUPATIONS:

     =================== HUBBARD OCCUPATIONS ===================
     ------------------------ ATOM    3 ------------------------
     Tr[ns(  3)] =   5.00000
     eigenvalues:
       0.500  0.500  0.500  0.500  0.500
     eigenvectors (columns):
       1.000  0.000  0.000  0.000  0.000
       0.000  1.000  0.000  0.000  0.000
       0.000  0.000  1.000  0.000  0.000
       0.000  0.000  0.000  1.000  0.000
       0.000  0.000  0.000  0.000  1.000
     occupation matrix ns (before diag.):
       0.500  0.000  0.000  0.000  0.000
       0.000  0.500  0.000  0.000  0.000
       0.000  0.000  0.500  0.000  0.000
       0.000  0.000  0.000  0.500  0.000
       0.000  0.000  0.000  0.000  0.500

     Number of occupied Hubbard levels =    5.0000

     Atomic wfc used for Hubbard projectors are orthogonalized

     Starting wfcs are   34 randomized atomic wfcs
     Checking if some PAW data can be deallocated... 

     total cpu time spent up to now is        2.1 secs

     Self-consistent Calculation

     iteration #  1     ecut=    60.00 Ry     beta= 0.70
     Davidson diagonalization with overlap
     ethr =  1.00E-02,  avg # of iterations =  2.0

     =================== HUBBARD OCCUPATIONS ===================
     ------------------------ ATOM    3 ------------------------
     Tr[ns(  3)] =   4.11578
     eigenvalues:
       0.212  0.224  0.456  0.555  0.611
     eigenvectors (columns):
      -0.004 -0.238  0.425  0.062 -0.871
       0.970 -0.013 -0.003  0.242  0.015
      -0.004 -0.445 -0.847  0.002 -0.291
      -0.013 -0.863  0.320 -0.014  0.390
       0.242 -0.007  0.020 -0.968 -0.058
     occupation matrix ns (before diag.):
       0.561 -0.000  0.015 -0.100  0.002
      -0.000  0.232 -0.001  0.001 -0.081
       0.015 -0.001  0.423 -0.107  0.002
      -0.100  0.001 -0.107  0.307 -0.003
       0.002 -0.081  0.002 -0.003  0.535

     Number of occupied Hubbard levels =    4.1158

     total cpu time spent up to now is        4.7 secs

     total energy              =    -518.73563371 Ry
     estimated scf accuracy    <       2.74203797 Ry

     iteration #  2     ecut=    60.00 Ry     beta= 0.70
     Davidson diagonalization with overlap
     ethr =  6.38E-03,  avg # of iterations =  5.7

     total cpu time spent up to now is        8.0 secs

     total energy              =    -517.37929452 Ry
     estimated scf accuracy    <      36.42211804 Ry

     iteration #  3     ecut=    60.00 Ry     beta= 0.70
     Davidson diagonalization with overlap
     ethr =  6.38E-03,  avg # of iterations =  3.3

     total cpu time spent up to now is       10.6 secs

     total energy              =    -520.28417703 Ry
     estimated scf accuracy    <       1.10675286 Ry

     iteration #  4     ecut=    60.00 Ry     beta= 0.70
     Davidson diagonalization with overlap
     ethr =  2.57E-03,  avg # of iterations =  2.2

     total cpu time spent up to now is       13.1 secs

     total energy              =    -520.45243735 Ry
     estimated scf accuracy    <       0.21175102 Ry

     iteration #  5     ecut=    60.00 Ry     beta= 0.70
     Davidson diagonalization with overlap
     ethr =  4.92E-04,  avg # of iterations =  4.7

     total cpu time spent up to now is       16.0 secs

     total energy              =    -520.59120043 Ry
     estimated scf accuracy    <       0.08609862 Ry

     iteration #  6     ecut=    60.00 Ry     beta= 0.70
     Davidson diagonalization with overlap
     ethr =  2.00E-04,  avg # of iterations =  1.3

     total cpu time spent up to now is       18.2 secs

     total energy              =    -520.63912330 Ry
     estimated scf accuracy    <       0.07143788 Ry

     iteration #  7     ecut=    60.00 Ry     beta= 0.70
     Davidson diagonalization with overlap
     ethr =  1.66E-04,  avg # of iterations =  4.8

     total cpu time spent up to now is       21.0 secs

     total energy              =    -520.64234725 Ry
     estimated scf accuracy    <       0.28591176 Ry

     iteration #  8     ecut=    60.00 Ry     beta= 0.70
     Davidson diagonalization with overlap
     ethr =  1.66E-04,  avg # of iterations =  1.9

     total cpu time spent up to now is       23.3 secs

     total energy              =    -520.62497828 Ry
     estimated scf accuracy    <       0.17848166 Ry

     iteration #  9     ecut=    60.00 Ry     beta= 0.70
     Davidson diagonalization with overlap
     ethr =  1.66E-04,  avg # of iterations =  2.0

     total cpu time spent up to now is       25.6 secs

     total energy              =    -520.60082396 Ry
     estimated scf accuracy    <       0.10361008 Ry

     iteration # 10     ecut=    60.00 Ry     beta= 0.70
     Davidson diagonalization with overlap
     ethr =  1.66E-04,  avg # of iterations =  1.9

     total cpu time spent up to now is       27.8 secs

     total energy              =    -520.59670739 Ry
     estimated scf accuracy    <       0.04095647 Ry

     iteration # 11     ecut=    60.00 Ry     beta= 0.70
     Davidson diagonalization with overlap
     ethr =  9.52E-05,  avg # of iterations =  2.9

     total cpu time spent up to now is       30.2 secs

     total energy              =    -520.60711066 Ry
     estimated scf accuracy    <       0.00491805 Ry

     iteration # 12     ecut=    60.00 Ry     beta= 0.70
     Davidson diagonalization with overlap
     ethr =  1.14E-05,  avg # of iterations =  5.8

     total cpu time spent up to now is       33.2 secs

     total energy              =    -520.60975673 Ry
     estimated scf accuracy    <       0.00074570 Ry

     iteration # 13     ecut=    60.00 Ry     beta= 0.70
     Davidson diagonalization with overlap
     ethr =  1.73E-06,  avg # of iterations = 13.6

     total cpu time spent up to now is       37.2 secs

     total energy              =    -520.61056682 Ry
     estimated scf accuracy    <       0.00024387 Ry

     iteration # 14     ecut=    60.00 Ry     beta= 0.70
     Davidson diagonalization with overlap
     ethr =  5.67E-07,  avg # of iterations =  8.6

     total cpu time spent up to now is       40.6 secs

     total energy              =    -520.61075611 Ry
     estimated scf accuracy    <       0.00009564 Ry

     iteration # 15     ecut=    60.00 Ry     beta= 0.70
     Davidson diagonalization with overlap
     ethr =  2.22E-07,  avg # of iterations =  3.8

     total cpu time spent up to now is       43.0 secs

     total energy              =    -520.61077933 Ry
     estimated scf accuracy    <       0.00004908 Ry

     iteration # 16     ecut=    60.00 Ry     beta= 0.70
     Davidson diagonalization with overlap
     ethr =  1.14E-07,  avg # of iterations =  4.6

     total cpu time spent up to now is       45.5 secs

     total energy              =    -520.61079493 Ry
     estimated scf accuracy    <       0.00002303 Ry

     iteration # 17     ecut=    60.00 Ry     beta= 0.70
     Davidson diagonalization with overlap
     ethr =  5.36E-08,  avg # of iterations =  4.2

     total cpu time spent up to now is       48.1 secs

     total energy              =    -520.61080948 Ry
     estimated scf accuracy    <       0.00000693 Ry

     iteration # 18     ecut=    60.00 Ry     beta= 0.70
     Davidson diagonalization with overlap
     ethr =  1.61E-08,  avg # of iterations =  7.3

     total cpu time spent up to now is       51.0 secs

     total energy              =    -520.61081717 Ry
     estimated scf accuracy    <       0.00000607 Ry

     iteration # 19     ecut=    60.00 Ry     beta= 0.70
     Davidson diagonalization with overlap
     ethr =  1.41E-08,  avg # of iterations =  1.9

     total cpu time spent up to now is       53.4 secs

     total energy              =    -520.61081921 Ry
     estimated scf accuracy    <       0.00000535 Ry

     iteration # 20     ecut=    60.00 Ry     beta= 0.70
     Davidson diagonalization with overlap
     ethr =  1.24E-08,  avg # of iterations =  2.8

     total cpu time spent up to now is       55.9 secs

     total energy              =    -520.61075111 Ry
     estimated scf accuracy    <       0.00000453 Ry

     iteration # 21     ecut=    60.00 Ry     beta= 0.70
     Davidson diagonalization with overlap
     ethr =  1.05E-08,  avg # of iterations =  4.6

     total cpu time spent up to now is       58.7 secs

     total energy              =    -520.61083482 Ry
     estimated scf accuracy    <       0.00000361 Ry

     iteration # 22     ecut=    60.00 Ry     beta= 0.70
     Davidson diagonalization with overlap
     ethr =  8.39E-09,  avg # of iterations =  3.1

     total cpu time spent up to now is       61.2 secs

     total energy              =    -520.61087483 Ry
     estimated scf accuracy    <       0.00000214 Ry

     iteration # 23     ecut=    60.00 Ry     beta= 0.70
     Davidson diagonalization with overlap
     ethr =  4.99E-09,  avg # of iterations =  3.4

     total cpu time spent up to now is       64.0 secs

     total energy              =    -520.61087153 Ry
     estimated scf accuracy    <       0.00000264 Ry

     iteration # 24     ecut=    60.00 Ry     beta= 0.70
     Davidson diagonalization with overlap
     ethr =  4.99E-09,  avg # of iterations =  2.9

     total cpu time spent up to now is       66.5 secs

     End of self-consistent calculation

     =================== HUBBARD OCCUPATIONS ===================
     ------------------------ ATOM    3 ------------------------
     Tr[ns(  3)] =   5.21616
     eigenvalues:
       0.194  0.320  0.400  0.719  0.976
     eigenvectors (columns):
      -0.544  0.001 -0.201 -0.006  0.814
       0.000 -0.958 -0.007  0.285  0.001
       0.806  0.004 -0.396  0.003  0.441
      -0.233  0.007 -0.896  0.003 -0.377
       0.005 -0.285 -0.005 -0.958 -0.004
     occupation matrix ns (before diag.):
       0.721  0.000  0.297 -0.203  0.000
       0.000  0.352  0.001  0.000 -0.109
       0.297  0.001  0.378 -0.057 -0.003
      -0.203  0.000 -0.057  0.471  0.000
       0.000 -0.109 -0.003  0.000  0.686

     Number of occupied Hubbard levels =    5.2162

          k = 0.0000 0.0000 0.0000 (  3893 PWs)   bands (ev):

   -73.2483 -42.6416 -41.8809 -41.2956 -12.0266 -10.6075 -10.5515 -10.4068
     0.6078   1.3690   2.0951   2.4206   2.7873   3.8187   3.9565   4.2942
     4.4644   5.0333   5.3820   5.4313   5.7199   6.5501   7.6675   9.4969
    10.0718  11.3087

          k = 0.0000 0.0000 0.1848 (  3895 PWs)   bands (ev):

   -73.2483 -42.6416 -41.8810 -41.2956 -11.8375 -10.8175 -10.6290 -10.3691
     0.8085   1.6064   1.9070   2.7983   2.8043   3.7734   3.9073   4.3035
     4.4005   4.7006   5.2213   5.3461   5.4852   6.5160   7.7666   9.2371
    10.1191  12.4273

          k = 0.0000 0.0000-0.3697 (  3896 PWs)   bands (ev):

   -73.2482 -42.6417 -41.8810 -41.2956 -11.5192 -11.1171 -10.7080 -10.3710
     1.1529   1.5697   2.3352   2.8172   2.8431   3.3249   3.7537   4.2765
     4.4878   4.5017   5.1358   5.2555   5.4086   6.4809   7.8150   9.0487
    10.1667  14.1025

          k = 0.0000 0.1185-0.0953 (  3890 PWs)   bands (ev):

   -73.2483 -42.6416 -41.8809 -41.2956 -11.9233 -10.7082 -10.6163 -10.3825
     0.8407   1.3584   2.0140   2.5937   2.8224   3.8226   3.9537   4.2602
     4.4219   4.8109   5.1666   5.3739   5.7047   6.5786   7.6872   9.5557
    10.1159  12.0995

          k = 0.0000 0.1185 0.0895 (  3904 PWs)   bands (ev):

   -73.2483 -42.6416 -41.8809 -41.2956 -11.8885 -10.8912 -10.5513 -10.2973
     0.7288   1.7116   1.9361   2.5959   2.7683   3.6599   3.8129   4.3985
     4.4158   4.9356   5.2197   5.3220   5.5916   6.5542   7.7584   9.2410
    10.0742  12.0452

          k = 0.0000 0.1185-0.4650 (  3922 PWs)   bands (ev):

   -73.2482 -42.6417 -41.8810 -41.2956 -11.5974 -11.1538 -10.6352 -10.3032
     1.0885   1.5163   2.3142   2.7822   2.8528   3.3846   3.7853   4.0272
     4.5155   4.7587   5.1613   5.2235   5.4385   6.5182   7.8493   9.0269
    10.1219  13.4025

          k = 0.0000 0.1185-0.2802 (  3907 PWs)   bands (ev):

   -73.2482 -42.6416 -41.8810 -41.2956 -11.6848 -10.9419 -10.7058 -10.3591
     1.0623   1.6196   2.0307   2.7607   2.8388   3.6463   3.7761   4.2537
     4.3712   4.6424   5.1409   5.2835   5.4467   6.5471   7.7930   9.3199
    10.1629  13.6903

          k = 0.0000-0.2369 0.1907 (  3908 PWs)   bands (ev):

   -73.2483 -42.6416 -41.8810 -41.2956 -11.7897 -10.8845 -10.6289 -10.3644
     0.8589   1.6549   2.1590   2.6895   2.8600   3.4054   3.8230   4.2290
     4.3413   4.7885   5.1309   5.3165   5.7125   6.6064   7.6963   9.6224
    10.1594  13.4347

          k = 0.0000-0.2369 0.3755 (  3904 PWs)   bands (ev):

   -73.2482 -42.6416 -41.8810 -41.2956 -11.7551 -10.9674 -10.6505 -10.2943
     1.1166   1.6155   1.8284   2.6898   2.8008   3.6108   3.8191   4.3813
     4.4611   4.6558   5.1565   5.2601   5.4831   6.5830   7.7986   9.3217
    10.1183  12.9513

          k = 0.0000-0.2369-0.1790 (  3900 PWs)   bands (ev):

   -73.2483 -42.6417 -41.8809 -41.2956 -11.6587 -11.2018 -10.5506 -10.2526
     0.9044   1.7564   2.2092   2.6987   2.7496   3.5666   3.7712   3.8176
     4.5350   4.9465   5.1987   5.2374   5.4851   6.5532   7.8299   9.0003
    10.0768  13.2574

          k = 0.2500-0.0601-0.1364 (  3913 PWs)   bands (ev):

   -73.2453 -42.6386 -41.8752 -41.3352 -11.4696 -10.6859 -10.4672 -10.3371
     1.2387   1.5286   1.9946   2.2769   2.5736   2.8429   3.5085   3.8736
     4.0495   4.7902   5.0207   5.2127   5.8675   6.4429   7.6206   9.2073
     9.7040  13.5349

          k = 0.2500-0.0601 0.0484 (  3893 PWs)   bands (ev):

   -73.2453 -42.6386 -41.8752 -41.3352 -11.5596 -10.5432 -10.4746 -10.3683
     1.2637   1.6552   1.8755   2.3009   2.6491   2.6842   3.4963   3.6988
     4.1289   4.7852   5.1479   5.2020   5.7960   6.5575   7.5515   9.2755
     9.6746  13.1980

          k = 0.2500-0.0601-0.5061 (  3920 PWs)   bands (ev):

   -73.2454 -42.6386 -41.8753 -41.3352 -11.3627 -10.7043 -10.5452 -10.3703
     1.1869   1.5484   2.0432   2.3161   2.4957   2.8406   3.7095   3.9446
     4.1675   4.6860   4.8285   5.1792   5.9274   6.4253   7.6095   9.1782
     9.5932  14.3253

          k = 0.2500-0.0601-0.3213 (  3917 PWs)   bands (ev):

   -73.2454 -42.6386 -41.8753 -41.3352 -11.1874 -10.9017 -10.5547 -10.3538
     1.1938   1.5680   1.9009   2.2109   2.5322   3.2796   3.5961   3.9155
     4.1675   4.6503   4.7955   5.1976   5.9302   6.3443   7.6650   9.2401
     9.5250  14.7181

          k = 0.2500 0.0584-0.2318 (  3919 PWs)   bands (ev):

   -73.2454 -42.6386 -41.8753 -41.3352 -11.3660 -10.7015 -10.5426 -10.3720
     1.1849   1.5484   2.0419   2.3125   2.4972   2.8403   3.7078   3.9403
     4.1725   4.6930   4.8294   5.1800   5.9278   6.4240   7.6121   9.1677
     9.5995  14.3155

          k = 0.2500 0.0584-0.0469 (  3898 PWs)   bands (ev):

   -73.2453 -42.6386 -41.8752 -41.3352 -11.5614 -10.5420 -10.4739 -10.3679
     1.2635   1.6546   1.8764   2.2984   2.6485   2.6820   3.5004   3.6905
     4.1362   4.7805   5.1575   5.2021   5.7908   6.5593   7.5518   9.2728
     9.6769  13.1929

          k = 0.2500 0.0584-0.6015 (  3912 PWs)   bands (ev):

   -73.2453 -42.6386 -41.8752 -41.3352 -11.4686 -10.6854 -10.4685 -10.3376
     1.2374   1.5339   1.9933   2.2747   2.5779   2.8389   3.5109   3.8680
     4.0584   4.7827   5.0192   5.2136   5.8679   6.4465   7.6173   9.2121
     9.6980  13.5452

          k = 0.2500 0.0584-0.4166 (  3914 PWs)   bands (ev):

   -73.2454 -42.6386 -41.8753 -41.3352 -11.1858 -10.9019 -10.5546 -10.3554
     1.1944   1.5671   1.9007   2.2076   2.5327   3.2872   3.6014   3.9132
     4.1613   4.6487   4.7979   5.1986   5.9326   6.3433   7.6627   9.2378
     9.5236  14.7271

          k = 0.2500-0.2970 0.0543 (  3925 PWs)   bands (ev):

   -73.2454 -42.6386 -41.8753 -41.3352 -11.2991 -10.7924 -10.5634 -10.3371
     1.3533   1.6732   1.9115   2.2960   2.4884   2.9324   3.4247   3.8656
     4.1701   4.6551   4.8705   5.2628   5.8943   6.4421   7.6366   9.1922
     9.6578  14.2949

          k = 0.2500-0.2970 0.2391 (  3915 PWs)   bands (ev):

   -73.2454 -42.6386 -41.8753 -41.3353 -11.4260 -10.6739 -10.5206 -10.3557
     1.2657   1.7890   2.0205   2.3234   2.5023   2.7631   3.3093   3.7229
     4.2761   4.6754   4.9509   5.2412   5.8742   6.5549   7.5547   9.2648
     9.5977  14.0827

          k = 0.2500-0.2970-0.3154 (  3912 PWs)   bands (ev):

   -73.2453 -42.6386 -41.8752 -41.3352 -11.4247 -10.7461 -10.4865 -10.3120
     1.4391   1.6184   1.8085   2.4013   2.6175   2.8744   3.2264   3.7289
     3.9732   4.7934   5.0959   5.3038   5.8260   6.4579   7.6392   9.2498
     9.7603  13.4508

          k = 0.2500-0.2970-0.1306 (  3920 PWs)   bands (ev):

   -73.2453 -42.6386 -41.8752 -41.3352 -11.2551 -10.9434 -10.4816 -10.3040
     1.3704   1.6178   1.8509   2.3272   2.5835   2.9840   3.2521   3.9181
     4.0356   4.6708   5.0279   5.2764   5.8921   6.3399   7.6992   9.3266
     9.6294  14.1999

          k = 0.2500-0.1785-0.0411 (  3913 PWs)   bands (ev):

   -73.2453 -42.6386 -41.8752 -41.3352 -11.4226 -10.7469 -10.4875 -10.3128
     1.4406   1.6135   1.8058   2.4139   2.6164   2.8698   3.2253   3.7363
     3.9730   4.7975   5.0805   5.3094   5.8326   6.4515   7.6401   9.2465
     9.7613  13.4518

          k = 0.2500-0.1785 0.1438 (  3921 PWs)   bands (ev):

   -73.2454 -42.6386 -41.8753 -41.3353 -11.4234 -10.6770 -10.5205 -10.3558
     1.2640   1.7883   2.0243   2.3303   2.4997   2.7665   3.3024   3.7259
     4.2720   4.6722   4.9547   5.2399   5.8758   6.5529   7.5543   9.2660
     9.5970  14.0939

          k = 0.2500-0.1785-0.4108 (  3924 PWs)   bands (ev):

   -73.2454 -42.6386 -41.8753 -41.3352 -11.2999 -10.7926 -10.5646 -10.3345
     1.3546   1.6775   1.9091   2.3010   2.4833   2.9341   3.4128   3.8699
     4.1692   4.6581   4.8692   5.2611   5.8888   6.4468   7.6357   9.2010
     9.6565  14.2817

          k = 0.2500-0.1785-0.2259 (  3913 PWs)   bands (ev):

   -73.2453 -42.6386 -41.8752 -41.3352 -11.2561 -10.9441 -10.4804 -10.3032
     1.3715   1.6111   1.8588   2.3327   2.5819   2.9766   3.2474   3.9181
     4.0389   4.6672   5.0363   5.2733   5.8889   6.3406   7.7010   9.3286
     9.6314  14.1958

          k =-0.5000 0.1201 0.2729 (  3924 PWs)   bands (ev):

   -73.2429 -42.6356 -41.8696 -41.3745 -10.6539 -10.5760 -10.5537 -10.4611
     0.5440   1.0095   1.7133   2.1914   2.4635   3.3404   3.7510   4.0982
     4.2653   4.4183   4.4871   4.9467   5.6825   6.3874   7.4781   9.4145
     9.7503  14.9036

          k =-0.5000 0.1201 0.4577 (  3919 PWs)   bands (ev):

   -73.2429 -42.6356 -41.8696 -41.3745 -10.7040 -10.6409 -10.5353 -10.3699
     0.7559   1.0466   1.8280   2.2227   2.5275   3.2482   3.5286   3.9353
     4.1021   4.2368   4.6708   4.8518   5.6770   6.5395   7.4559   9.2231
     9.7390  15.4191

          k =-0.5000 0.1201-0.0968 (  3936 PWs)   bands (ev):

   -73.2429 -42.6356 -41.8696 -41.3745 -10.7401 -10.6850 -10.5130 -10.3173
     0.9265   1.1951   2.0164   2.2751   2.5581   2.9606   3.1974   3.8558
     4.0286   4.2417   4.5979   4.8720   5.6649   6.6555   7.4373   9.0295
     9.7568  15.5682

          k =-0.5000 0.2386 0.1775 (  3933 PWs)   bands (ev):

   -73.2429 -42.6356 -41.8696 -41.3745 -10.6528 -10.5776 -10.5529 -10.4614
     0.6060   0.9240   1.7310   2.1307   2.4818   3.4479   3.8243   3.9966
     4.2459   4.4206   4.4854   4.9339   5.6815   6.3911   7.4725   9.4210
     9.7319  15.2623

          k =-0.5000 0.2386 0.3623 (  3926 PWs)   bands (ev):

   -73.2429 -42.6356 -41.8696 -41.3745 -10.6944 -10.6627 -10.5241 -10.3687
     0.7350   1.0939   1.8253   2.0951   2.7006   3.1786   3.5211   3.9087
     4.0927   4.2469   4.7080   4.8516   5.6743   6.5430   7.4552   9.2092
     9.7529  15.2102

          k =-0.5000 0.2386-0.1922 (  3915 PWs)   bands (ev):

   -73.2429 -42.6356 -41.8696 -41.3745 -10.7551 -10.6647 -10.5225 -10.3128
     0.9569   1.1409   2.0581   2.2605   2.6074   2.8912   3.2602   3.8344
     3.9485   4.2559   4.5930   4.9104   5.6698   6.6631   7.4358   9.0334
     9.7501  15.5618

          k =-0.5000 0.2386-0.0073 (  3927 PWs)   bands (ev):

   -73.2429 -42.6356 -41.8696 -41.3745 -10.6911 -10.6602 -10.5274 -10.3713
     0.7330   1.0980   1.8181   2.0925   2.6996   3.1799   3.5215   3.9221
     4.0969   4.2483   4.7022   4.8501   5.6753   6.5384   7.4536   9.2160
     9.7493  15.1988

          k =-0.5000-0.1168 0.4635 (  3926 PWs)   bands (ev):

   -73.2429 -42.6356 -41.8696 -41.3745 -10.6514 -10.5750 -10.5580 -10.4601
     0.5471   1.0124   1.7115   2.1726   2.4493   3.3383   3.7873   4.1009
     4.2745   4.4244   4.4777   4.9433   5.6833   6.3829   7.4737   9.4142
     9.7469  14.8968

          k =-0.5000-0.1168 0.6484 (  3915 PWs)   bands (ev):

   -73.2429 -42.6356 -41.8696 -41.3745 -10.7050 -10.6447 -10.5334 -10.3666
     0.7621   1.0454   1.8262   2.2174   2.5100   3.2544   3.5310   3.9446
     4.0996   4.2436   4.6703   4.8544   5.6765   6.5396   7.4541   9.2185
     9.7392  15.4365

          k =-0.5000-0.1168 0.0939 (  3930 PWs)   bands (ev):

   -73.2429 -42.6356 -41.8696 -41.3745 -10.7447 -10.6879 -10.5093 -10.3130
     0.9366   1.1916   2.0197   2.2678   2.5366   2.9712   3.1965   3.8497
     4.0343   4.2460   4.5997   4.8771   5.6633   6.6605   7.4363   9.0163
     9.7604  15.5745

     the Fermi energy is     6.5234 ev

!    total energy              =    -520.61089225 Ry
     total all-electron energy =     -3720.864151 Ry
     estimated scf accuracy    <       0.00000097 Ry
     smearing contrib. (-TS)   =      -0.00434816 Ry
     internal energy E=F+TS    =    -520.60654408 Ry

     The total energy is F=E-TS. E is the sum of the following terms:
     one-electron contribution =    -242.71473802 Ry
     hartree contribution      =     145.99151068 Ry
     xc contribution           =     -61.15807969 Ry
     ewald contribution        =    -184.23162079 Ry
     Hubbard energy            =       0.24061115 Ry
     one-center paw contrib.   =    -178.73422742 Ry

     convergence has been achieved in  24 iterations
     force_hub    :     13.27s CPU      2.15s WALL (       1 calls)
     dndtau       :     11.59s CPU      1.90s WALL (     756 calls)
     dprojdtau    :      1.59s CPU      0.26s WALL (     756 calls)
     calc_doverla :      6.22s CPU      1.06s WALL (     756 calls)
     matel_dSdtau :      9.22s CPU      1.41s WALL (    1512 calls)

     Forces acting on atoms (cartesian axes, Ry/au):

     atom    1 type  1   force =     0.00195227   -0.01537298   -0.00866508
     atom    2 type  1   force =    -0.00058910    0.00796911   -0.00922067
     atom    3 type  3   force =    -0.00113051   -0.04383003   -0.00989303
     atom    4 type  2   force =    -0.00145858    0.03637332    0.02252861
     atom    5 type  2   force =     0.00080018   -0.00985612   -0.00460746
     atom    6 type  2   force =     0.00069365    0.01170650    0.01073766
     atom    7 type  2   force =    -0.00026792    0.01301020   -0.00088002

     Total force =     0.069706     Total SCF correction =     0.000739


     Computing stress (Cartesian axis) and pressure

     stres_hub    :     42.06s CPU      5.26s WALL (       1 calls)
     dprojdepsilo :     33.30s CPU      4.27s WALL (     324 calls)
     dprojdeps1   :      3.08s CPU      0.48s WALL (     324 calls)
     dprojdeps2   :     16.98s CPU      2.38s WALL (     324 calls)
     dprojdeps3   :     13.23s CPU      1.41s WALL (     324 calls)
          total   stress  (Ry/bohr**3)                   (kbar)     P=      -38.05
  -0.00004283   0.00000267   0.00000003           -6.30        0.39        0.00
   0.00000267  -0.00042796  -0.00016487            0.39      -62.96      -24.25
   0.00000003  -0.00016487  -0.00030512            0.00      -24.25      -44.88


     BFGS Geometry Optimization
     Energy error            =      9.0E-03 Ry
     Gradient error          =      4.4E-02 Ry/Bohr
     Cell gradient error     =      6.3E+01 kbar

     number of scf cycles    =   1
     number of bfgs steps    =   0

     enthalpy           new  =    -520.6108922479 Ry

     new trust radius        =       0.0512056978 bohr
     new conv_thr            =       0.0000010000 Ry

     new unit-cell volume =    488.99471 a.u.^3 (    72.46154 Ang^3 )
     density =      3.83946 g/cm^3

CELL_PARAMETERS (angstrom)
   2.955099212   0.000197597   0.000002309
   1.498765774   6.175763962  -0.025728671
   2.954256559   3.169363699   3.957359340

ATOMIC_POSITIONS (angstrom)
Mg               3.4242858267        4.8359329918        1.5066229707
Mg               0.4794075817        1.0773107817        0.3875276216
Mn               4.9117619382        2.3490229561        2.5269026369
O                3.4579394072        6.8824739798        1.7551987226
O                4.9071221150        4.3038953485        2.8884340134
O                3.4330342224        2.8084016793        1.3700143401
O                4.9314229095        8.3578463216        3.8601382962



     Writing config-only to output data dir .\out\\qgan.save\ :
     XML data file
     NEW-OLD atomic charge density approx. for the potential
     New effective cutoffs (rho, wfc):  492.74   61.62

     Check: negative core charge=   -0.000002

     Atomic wfc used for Hubbard projectors are orthogonalized


     total cpu time spent up to now is       76.9 secs

     Self-consistent Calculation

     iteration #  1     ecut=    60.00 Ry     beta= 0.70
     Davidson diagonalization with overlap
     ethr =  1.00E-06,  avg # of iterations = 13.6

     =================== HUBBARD OCCUPATIONS ===================
     ------------------------ ATOM    3 ------------------------
     Tr[ns(  3)] =   5.28768
     eigenvalues:
       0.214  0.323  0.407  0.726  0.974
     eigenvectors (columns):
      -0.547 -0.001 -0.200 -0.004  0.813
       0.000  0.958 -0.005  0.285  0.001
       0.801 -0.004 -0.408  0.003  0.439
      -0.244 -0.005 -0.891  0.003 -0.383
       0.004  0.285 -0.005 -0.958 -0.003
     occupation matrix ns (before diag.):
       0.724  0.000  0.287 -0.202  0.000
       0.000  0.356  0.001  0.000 -0.110
       0.287  0.001  0.392 -0.058 -0.002
      -0.202  0.000 -0.058  0.478  0.000
       0.000 -0.110 -0.002  0.000  0.694

     Number of occupied Hubbard levels =    5.2877

     total cpu time spent up to now is       83.8 secs

     total energy              =    -520.61076974 Ry
     estimated scf accuracy    <       0.00874813 Ry

     iteration #  2     ecut=    60.00 Ry     beta= 0.70
     Davidson diagonalization with overlap
     ethr =  2.03E-05,  avg # of iterations =  4.5

     total cpu time spent up to now is       86.6 secs

     total energy              =    -520.60408217 Ry
     estimated scf accuracy    <       0.14667507 Ry

     iteration #  3     ecut=    60.00 Ry     beta= 0.70
     Davidson diagonalization with overlap
     ethr =  2.03E-05,  avg # of iterations =  3.5

     total cpu time spent up to now is       89.2 secs

     total energy              =    -520.61588793 Ry
     estimated scf accuracy    <       0.00365154 Ry

     iteration #  4     ecut=    60.00 Ry     beta= 0.70
     Davidson diagonalization with overlap
     ethr =  8.49E-06,  avg # of iterations =  2.1

     total cpu time spent up to now is       91.5 secs

     total energy              =    -520.61671537 Ry
     estimated scf accuracy    <       0.00110476 Ry

     iteration #  5     ecut=    60.00 Ry     beta= 0.70
     Davidson diagonalization with overlap
     ethr =  2.57E-06,  avg # of iterations =  2.3

     total cpu time spent up to now is       93.7 secs

     total energy              =    -520.61688025 Ry
     estimated scf accuracy    <       0.00008858 Ry

     iteration #  6     ecut=    60.00 Ry     beta= 0.70
     Davidson diagonalization with overlap
     ethr =  2.06E-07,  avg # of iterations = 11.4

     total cpu time spent up to now is       97.4 secs

     total energy              =    -520.61696554 Ry
     estimated scf accuracy    <       0.00010584 Ry

     iteration #  7     ecut=    60.00 Ry     beta= 0.70
     Davidson diagonalization with overlap
     ethr =  2.06E-07,  avg # of iterations =  1.2

     total cpu time spent up to now is       99.6 secs

     total energy              =    -520.61697227 Ry
     estimated scf accuracy    <       0.00001742 Ry

     iteration #  8     ecut=    60.00 Ry     beta= 0.70
     Davidson diagonalization with overlap
     ethr =  4.05E-08,  avg # of iterations =  8.9

     total cpu time spent up to now is      103.0 secs

     total energy              =    -520.61698673 Ry
     estimated scf accuracy    <       0.00001940 Ry

     iteration #  9     ecut=    60.00 Ry     beta= 0.70
     Davidson diagonalization with overlap
     ethr =  4.05E-08,  avg # of iterations =  1.4

     total cpu time spent up to now is      105.1 secs

     total energy              =    -520.61698595 Ry
     estimated scf accuracy    <       0.00001089 Ry

     iteration # 10     ecut=    60.00 Ry     beta= 0.70
     Davidson diagonalization with overlap
     ethr =  2.53E-08,  avg # of iterations =  2.0

     total cpu time spent up to now is      107.5 secs

     total energy              =    -520.61698723 Ry
     estimated scf accuracy    <       0.00000149 Ry

     iteration # 11     ecut=    60.00 Ry     beta= 0.70
     Davidson diagonalization with overlap
     c_bands:  3 eigenvalues not converged
     c_bands:  4 eigenvalues not converged
     c_bands:  1 eigenvalues not converged
     ethr =  3.47E-09,  avg # of iterations = 12.7

     total cpu time spent up to now is      112.2 secs

     End of self-consistent calculation

     =================== HUBBARD OCCUPATIONS ===================
     ------------------------ ATOM    3 ------------------------
     Tr[ns(  3)] =   5.22519
     eigenvalues:
       0.207  0.319  0.400  0.713  0.973
     eigenvectors (columns):
       0.549 -0.000  0.204 -0.001  0.810
      -0.000  0.958  0.002  0.287  0.000
      -0.800 -0.002  0.410  0.002  0.439
       0.243 -0.003  0.889  0.003 -0.388
      -0.001  0.287  0.004 -0.958 -0.001
     occupation matrix ns (before diag.):
       0.718  0.000  0.289 -0.206 -0.000
       0.000  0.351  0.000  0.000 -0.109
       0.289  0.000  0.387 -0.060 -0.001
      -0.206  0.000 -0.060  0.475 -0.001
      -0.000 -0.109 -0.001 -0.001  0.681

     Number of occupied Hubbard levels =    5.2252

          k = 0.0000 0.0000 0.0000 (  3893 PWs)   bands (ev):

   -72.9625 -42.3757 -41.6019 -41.0077 -11.9186 -10.5607 -10.3110 -10.1395
     0.7529   1.4869   2.1767   2.6100   2.9867   3.9321   4.1610   4.3715
     4.6191   5.3465   5.5870   5.6681   6.0268   6.9417   7.9530   9.9624
    10.3769  11.6745

          k =-0.0000 0.0008 0.1863 (  3895 PWs)   bands (ev):

   -72.9625 -42.3757 -41.6019 -41.0077 -11.7248 -10.7255 -10.3869 -10.1588
     0.9475   1.7456   1.9932   2.9893   2.9970   3.8845   4.0461   4.4884
     4.5644   4.9313   5.4869   5.5813   5.7596   6.9034   8.0558   9.6848
    10.4249  12.7846

          k = 0.0000-0.0016-0.3725 (  3896 PWs)   bands (ev):

   -72.9624 -42.3758 -41.6019 -41.0077 -11.3983 -11.0105 -10.4611 -10.1938
     1.2181   1.7720   2.4996   2.9988   3.0029   3.4609   3.8686   4.4997
     4.5866   4.7592   5.4203   5.4891   5.6422   6.8644   8.1182   9.4742
    10.4732  14.4063

          k =-0.0000 0.1194-0.0956 (  3890 PWs)   bands (ev):

   -72.9625 -42.3757 -41.6019 -41.0077 -11.8167 -10.6040 -10.4261 -10.1239
     0.9857   1.4803   2.1458   2.7393   3.0221   3.9499   4.1169   4.3218
     4.6659   5.0079   5.4311   5.6150   6.0223   6.9672   7.9626  10.0229
    10.4222  12.4628

          k =-0.0000 0.1201 0.0907 (  3904 PWs)   bands (ev):

   -72.9625 -42.3757 -41.6019 -41.0077 -11.7660 -10.8095 -10.2924 -10.1025
     0.8875   1.8054   2.0287   2.8121   2.9610   3.8102   3.9247   4.4920
     4.6218   5.1804   5.5121   5.5664   5.8453   6.9406   8.0510   9.6791
    10.3787  12.4254

          k =-0.0000 0.1178-0.4681 (  3922 PWs)   bands (ev):

   -72.9625 -42.3758 -41.6019 -41.0077 -11.4446 -11.0890 -10.3732 -10.1303
     1.2448   1.6098   2.4345   2.9680   3.0783   3.4945   3.8988   4.2851
     4.6026   5.0222   5.4111   5.4691   5.6854   6.9006   8.1486   9.4530
    10.4271  13.7656

          k =-0.0000 0.1186-0.2818 (  3907 PWs)   bands (ev):

   -72.9624 -42.3757 -41.6019 -41.0077 -11.5767 -10.8153 -10.4989 -10.1465
     1.1907   1.7455   2.1739   2.9434   3.0311   3.7981   3.8977   4.4460
     4.4727   4.8749   5.3897   5.5237   5.7475   6.9317   8.0793   9.7656
    10.4698  14.0254

          k = 0.0000-0.2387 0.1912 (  3908 PWs)   bands (ev):

   -72.9625 -42.3757 -41.6019 -41.0077 -11.6876 -10.7181 -10.4932 -10.1118
     0.9918   1.7806   2.3413   2.8036   3.0599   3.5872   3.9695   4.2694
     4.5457   4.9938   5.4100   5.5617   6.0268   6.9925   7.9651  10.0892
    10.4669  13.7633

          k = 0.0000-0.2379 0.3774 (  3904 PWs)   bands (ev):

   -72.9625 -42.3757 -41.6019 -41.0077 -11.6303 -10.8842 -10.4027 -10.0950
     1.2800   1.7374   1.9369   2.8630   2.9931   3.7599   3.9422   4.4495
     4.7167   4.8725   5.3987   5.5094   5.7785   6.9670   8.0875   9.7622
    10.4239  13.3409

          k = 0.0000-0.2403-0.1814 (  3900 PWs)   bands (ev):

   -72.9625 -42.3758 -41.6019 -41.0077 -11.4828 -11.1596 -10.2866 -10.0812
     1.0940   1.7831   2.3142   2.9355   2.9506   3.6887   3.9303   4.0359
     4.6119   5.1809   5.4559   5.5040   5.7503   6.9350   8.1251   9.4205
    10.3809  13.6443

          k = 0.2503-0.0613-0.1377 (  3913 PWs)   bands (ev):

   -72.9595 -42.3726 -41.5960 -41.0483 -11.3540 -10.5902 -10.2438 -10.1150
     1.3641   1.6404   2.1057   2.4039   2.7516   3.0228   3.7455   4.0077
     4.2313   4.9869   5.2734   5.4506   6.1173   6.8312   7.9376   9.6278
    10.0562  13.8737

          k = 0.2503-0.0605 0.0485 (  3893 PWs)   bands (ev):

   -72.9595 -42.3726 -41.5960 -41.0483 -11.4523 -10.4555 -10.2882 -10.0913
     1.3871   1.7768   2.0114   2.4218   2.8142   2.8500   3.6732   3.9159
     4.2782   4.9916   5.3556   5.4921   6.0463   6.9385   7.8637   9.6949
    10.0278  13.5379

          k = 0.2503-0.0629-0.5103 (  3920 PWs)   bands (ev):

   -72.9595 -42.3726 -41.5961 -41.0483 -11.2592 -10.5653 -10.3687 -10.1341
     1.3020   1.6495   2.1630   2.4995   2.6814   2.9947   3.9324   4.0610
     4.3525   4.9286   5.0304   5.4184   6.1717   6.8229   7.9294   9.5831
     9.9615  14.6496

          k = 0.2503-0.0621-0.3240 (  3917 PWs)   bands (ev):

   -72.9595 -42.3726 -41.5961 -41.0483 -11.0729 -10.7846 -10.3269 -10.1596
     1.3010   1.6447   2.0449   2.3925   2.7459   3.3699   3.8216   4.1202
     4.3357   4.8694   4.9977   5.4222   6.1845   6.7394   7.9931   9.7003
     9.8355  15.0202

          k = 0.2503 0.0580-0.2333 (  3919 PWs)   bands (ev):

   -72.9595 -42.3726 -41.5961 -41.0483 -11.2622 -10.5633 -10.3663 -10.1350
     1.3007   1.6497   2.1625   2.4952   2.6822   2.9931   3.9296   4.0586
     4.3585   4.9372   5.0266   5.4200   6.1727   6.8228   7.9307   9.5780
     9.9633  14.6401

          k = 0.2503 0.0588-0.0471 (  3898 PWs)   bands (ev):

   -72.9595 -42.3726 -41.5960 -41.0483 -11.4541 -10.4553 -10.2862 -10.0911
     1.3874   1.7753   2.0125   2.4191   2.8018   2.8604   3.6741   3.9097
     4.2863   4.9840   5.3690   5.4909   6.0422   6.9396   7.8637   9.6932
    10.0294  13.5328

          k = 0.2503 0.0565-0.6058 (  3912 PWs)   bands (ev):

   -72.9595 -42.3726 -41.5960 -41.0483 -11.3532 -10.5891 -10.2456 -10.1154
     1.3619   1.6449   2.1049   2.4019   2.7589   3.0174   3.7465   4.0052
     4.2376   4.9813   5.2702   5.4515   6.1188   6.8335   7.9353   9.6283
    10.0539  13.8840

          k = 0.2503 0.0573-0.4196 (  3914 PWs)   bands (ev):

   -72.9595 -42.3726 -41.5961 -41.0483 -11.0723 -10.7831 -10.3281 -10.1608
     1.3009   1.6440   2.0440   2.3905   2.7469   3.3775   3.8248   4.1179
     4.3312   4.8666   5.0005   5.4233   6.1860   6.7399   7.9907   9.6983
     9.8336  15.0275

          k = 0.2503-0.3000 0.0534 (  3925 PWs)   bands (ev):

   -72.9595 -42.3726 -41.5961 -41.0483 -11.1895 -10.6695 -10.3633 -10.1158
     1.4685   1.7851   2.0565   2.4367   2.6762   3.0936   3.6279   4.0061
     4.3412   4.9062   5.0803   5.4886   6.1507   6.8352   7.9528   9.5856
    10.0381  14.6247

          k = 0.2503-0.2992 0.2397 (  3915 PWs)   bands (ev):

   -72.9595 -42.3726 -41.5961 -41.0483 -11.3242 -10.5058 -10.3985 -10.0919
     1.3844   1.9007   2.1963   2.4845   2.6672   2.8778   3.4888   3.8974
     4.4607   4.9285   5.1110   5.5184   6.1206   6.9492   7.8612   9.6484
     9.9887  14.4171

          k = 0.2503-0.3016-0.3191 (  3912 PWs)   bands (ev):

   -72.9595 -42.3726 -41.5960 -41.0483 -11.3020 -10.6582 -10.2544 -10.0994
     1.5895   1.7421   1.8934   2.5312   2.7735   3.0477   3.4816   3.8743
     4.1313   5.0291   5.3284   5.5286   6.0884   6.8402   7.9548   9.6511
    10.1307  13.7951

          k = 0.2503-0.3008-0.1328 (  3920 PWs)   bands (ev):

   -72.9595 -42.3726 -41.5960 -41.0483 -11.0905 -10.8865 -10.2339 -10.1195
     1.5274   1.7092   1.9222   2.4996   2.7708   3.1101   3.4764   4.1190
     4.2234   4.8455   5.2849   5.4927   6.1469   6.7340   8.0187   9.7874
     9.9379  14.5340

          k = 0.2503-0.1807-0.0421 (  3913 PWs)   bands (ev):

   -72.9595 -42.3726 -41.5960 -41.0483 -11.2996 -10.6590 -10.2562 -10.0996
     1.5886   1.7411   1.8912   2.5424   2.7731   3.0406   3.4818   3.8804
     4.1319   5.0335   5.3127   5.5346   6.0921   6.8373   7.9549   9.6511
    10.1285  13.7957

          k = 0.2503-0.1799 0.1441 (  3921 PWs)   bands (ev):

   -72.9595 -42.3726 -41.5961 -41.0483 -11.3217 -10.5077 -10.3996 -10.0919
     1.3824   1.9005   2.1996   2.4918   2.6689   2.8754   3.4843   3.8998
     4.4570   4.9241   5.1149   5.5177   6.1213   6.9479   7.8612   9.6484
     9.9890  14.4278

          k = 0.2503-0.1822-0.4147 (  3924 PWs)   bands (ev):

   -72.9595 -42.3726 -41.5961 -41.0483 -11.1899 -10.6714 -10.3622 -10.1143
     1.4696   1.7894   2.0545   2.4418   2.6678   3.0980   3.6169   4.0097
     4.3406   4.9102   5.0800   5.4862   6.1465   6.8365   7.9531   9.5902
    10.0405  14.6127

          k = 0.2503-0.1814-0.2284 (  3913 PWs)   bands (ev):

   -72.9595 -42.3726 -41.5960 -41.0483 -11.0908 -10.8880 -10.2322 -10.1191
     1.5295   1.7037   1.9280   2.5040   2.7670   3.1067   3.4712   4.1207
     4.2246   4.8422   5.2939   5.4890   6.1446   6.7333   8.0206   9.7888
     9.9407  14.5308

          k =-0.5005 0.1226 0.2755 (  3924 PWs)   bands (ev):

   -72.9570 -42.3695 -41.5902 -41.0885 -10.6307 -10.4419 -10.3330 -10.1848
     0.6626   1.1841   1.8300   2.2727   2.5795   3.5216   3.8692   4.2684
     4.4716   4.7161   4.7376   5.2103   5.9366   6.7187   7.8181   9.8886
    10.0663  15.2399

          k =-0.5005 0.1234 0.4617 (  3919 PWs)   bands (ev):

   -72.9570 -42.3695 -41.5902 -41.0885 -10.6840 -10.4613 -10.3149 -10.1360
     0.8727   1.2284   1.9371   2.3465   2.6069   3.4289   3.6593   4.1653
     4.3426   4.4857   4.8692   5.0856   5.9325   6.8832   7.7967   9.6927
    10.0432  15.7501

          k =-0.5005 0.1211-0.0971 (  3936 PWs)   bands (ev):

   -72.9570 -42.3695 -41.5902 -41.0885 -10.7265 -10.4837 -10.2958 -10.0960
     1.0634   1.3480   2.1505   2.4009   2.6583   3.0866   3.3718   4.1001
     4.2620   4.5027   4.8014   5.0342   5.9231   7.0086   7.7795   9.4837
    10.0619  15.8973

          k =-0.5006 0.2420 0.1799 (  3933 PWs)   bands (ev):

   -72.9570 -42.3695 -41.5902 -41.0885 -10.6307 -10.4414 -10.3335 -10.1847
     0.7205   1.0994   1.8350   2.2590   2.5626   3.6606   3.8887   4.1942
     4.4489   4.6991   4.7539   5.2020   5.9356   6.7225   7.8111   9.9033
    10.0403  15.5981

          k =-0.5006 0.2428 0.3661 (  3926 PWs)   bands (ev):

   -72.9570 -42.3695 -41.5902 -41.0885 -10.6851 -10.4666 -10.3091 -10.1351
     0.8629   1.2609   1.9386   2.2064   2.7930   3.3425   3.6638   4.1404
     4.3440   4.4936   4.8970   5.0863   5.9304   6.8879   7.7961   9.6763
    10.0595  15.5438

          k =-0.5006 0.2404-0.1926 (  3915 PWs)   bands (ev):

   -72.9570 -42.3695 -41.5902 -41.0885 -10.7301 -10.4785 -10.3006 -10.0925
     1.0855   1.3091   2.1364   2.4488   2.7019   3.0125   3.4267   4.0701
     4.2049   4.5028   4.7889   5.0851   5.9273   7.0158   7.7787   9.4898
    10.0530  15.8843

          k =-0.5006 0.2412-0.0064 (  3927 PWs)   bands (ev):

   -72.9570 -42.3695 -41.5902 -41.0885 -10.6832 -10.4634 -10.3130 -10.1364
     0.8610   1.2638   1.9308   2.2064   2.7915   3.3453   3.6639   4.1519
     4.3493   4.4926   4.8942   5.0835   5.9312   6.8846   7.7938   9.6815
    10.0574  15.5302

          k =-0.5005-0.1161 0.4666 (  3926 PWs)   bands (ev):

   -72.9570 -42.3695 -41.5902 -41.0885 -10.6310 -10.4387 -10.3369 -10.1835
     0.6662   1.1851   1.8265   2.2585   2.5650   3.5222   3.8957   4.2756
     4.4786   4.7240   4.7288   5.2070   5.9373   6.7164   7.8128   9.8863
    10.0651  15.2299

          k =-0.5005-0.1153 0.6529 (  3915 PWs)   bands (ev):

   -72.9570 -42.3695 -41.5902 -41.0885 -10.6859 -10.4626 -10.3136 -10.1337
     0.8795   1.2262   1.9341   2.3410   2.5938   3.4333   3.6613   4.1754
     4.3370   4.4938   4.8693   5.0873   5.9323   6.8841   7.7945   9.6880
    10.0437  15.7674

          k =-0.5005-0.1176 0.0941 (  3930 PWs)   bands (ev):

   -72.9570 -42.3695 -41.5902 -41.0885 -10.7298 -10.4870 -10.2916 -10.0930
     1.0751   1.3438   2.1499   2.3937   2.6441   3.0897   3.3759   4.0951
     4.2653   4.5036   4.8070   5.0372   5.9220   7.0130   7.7789   9.4722
    10.0644  15.9058

     the Fermi energy is     6.9046 ev

!    total energy              =    -520.61699042 Ry
     total all-electron energy =     -3720.870249 Ry
     estimated scf accuracy    <       0.00000024 Ry
     smearing contrib. (-TS)   =      -0.00507615 Ry
     internal energy E=F+TS    =    -520.61191427 Ry

     The total energy is F=E-TS. E is the sum of the following terms:
     one-electron contribution =    -241.87350034 Ry
     hartree contribution      =     145.93976682 Ry
     xc contribution           =     -61.24225184 Ry
     ewald contribution        =    -184.93815227 Ry
     Hubbard energy            =       0.24424027 Ry
     one-center paw contrib.   =    -178.74201691 Ry

     convergence has been achieved in  11 iterations
     force_hub    :     28.59s CPU      4.19s WALL (       2 calls)
     dndtau       :     24.92s CPU      3.69s WALL (    1512 calls)
     dprojdtau    :      3.12s CPU      0.52s WALL (    1512 calls)
     calc_doverla :     14.41s CPU      2.04s WALL (    1512 calls)
     matel_dSdtau :     18.75s CPU      2.70s WALL (    3024 calls)

     Forces acting on atoms (cartesian axes, Ry/au):

     atom    1 type  1   force =     0.00189364   -0.01337537   -0.00858145
     atom    2 type  1   force =    -0.00061508    0.00667119   -0.01576807
     atom    3 type  3   force =    -0.00071461   -0.01549707    0.00561945
     atom    4 type  2   force =    -0.00124555    0.01018822    0.01421764
     atom    5 type  2   force =     0.00066698    0.00026975   -0.00012216
     atom    6 type  2   force =     0.00049578    0.00485111   -0.00125832
     atom    7 type  2   force =    -0.00048116    0.00689216    0.00589292

     Total force =     0.035182     Total SCF correction =     0.000372


     Computing stress (Cartesian axis) and pressure

     stres_hub    :     85.11s CPU     10.53s WALL (       2 calls)
     dprojdepsilo :     68.41s CPU      8.56s WALL (     648 calls)
     dprojdeps1   :      7.02s CPU      0.95s WALL (     648 calls)
     dprojdeps2   :     37.44s CPU      4.79s WALL (     648 calls)
     dprojdeps3   :     23.94s CPU      2.82s WALL (     648 calls)
          total   stress  (Ry/bohr**3)                   (kbar)     P=       -3.48
   0.00007442  -0.00000007   0.00000041           10.95       -0.01        0.06
  -0.00000007  -0.00006600  -0.00004368           -0.01       -9.71       -6.43
   0.00000041  -0.00004368  -0.00007931            0.06       -6.43      -11.67

     Energy error            =      6.1E-03 Ry
     Gradient error          =      1.6E-02 Ry/Bohr
     Cell gradient error     =      1.2E+01 kbar

     number of scf cycles    =   2
     number of bfgs steps    =   1

     enthalpy           old  =    -520.6108922479 Ry
     enthalpy           new  =    -520.6169904199 Ry

     CASE: enthalpy          _new < enthalpy          _old

     new trust radius        =       0.0302280037 bohr
     new conv_thr            =       0.0000001577 Ry

     new unit-cell volume =    486.30810 a.u.^3 (    72.06342 Ang^3 )
     density =      3.86067 g/cm^3

CELL_PARAMETERS (angstrom)
   2.962341084   0.000220011   0.000045611
   1.502483125   6.151315797  -0.039216915
   2.961577745   3.148136367   3.934720246

ATOMIC_POSITIONS (angstrom)
Mg               3.4343158874        4.8025064051        1.4831260292
Mg               0.4800859608        1.0778389291        0.3711783663
Mn               4.9232233155        2.3193847097        2.5153147275
O                3.4654362033        6.8615093831        1.7452882454
O                4.9197877432        4.2799646924        2.8671197779
O                3.4419171458        2.7987543365        1.3582940385
O                4.9432421732        8.3222784639        3.8307140077



     Writing config-only to output data dir .\out\\qgan.save\ :
     XML data file
     NEW-OLD atomic charge density approx. for the potential
     New effective cutoffs (rho, wfc):  498.35   62.36

     Check: negative core charge=   -0.000002

     Atomic wfc used for Hubbard projectors are orthogonalized


     total cpu time spent up to now is      122.5 secs

     Self-consistent Calculation

     iteration #  1     ecut=    60.00 Ry     beta= 0.70
     Davidson diagonalization with overlap
     ethr =  1.00E-06,  avg # of iterations = 11.3

     =================== HUBBARD OCCUPATIONS ===================
     ------------------------ ATOM    3 ------------------------
     Tr[ns(  3)] =   5.26476
     eigenvalues:
       0.219  0.318  0.403  0.718  0.974
     eigenvectors (columns):
       0.551 -0.000  0.202 -0.000  0.810
      -0.001  0.958  0.001  0.286  0.000
      -0.796 -0.002  0.418  0.001  0.437
       0.250 -0.001  0.885  0.003 -0.392
      -0.001  0.286  0.003 -0.958 -0.001
     occupation matrix ns (before diag.):
       0.721  0.000  0.283 -0.206 -0.000
       0.000  0.351  0.000  0.000 -0.109
       0.283  0.000  0.395 -0.061 -0.001
      -0.206  0.000 -0.061  0.479 -0.001
      -0.000 -0.109 -0.001 -0.001  0.685

     Number of occupied Hubbard levels =    5.2648

     total cpu time spent up to now is      128.3 secs

     total energy              =    -520.61643576 Ry
     estimated scf accuracy    <       0.00327052 Ry

     iteration #  2     ecut=    60.00 Ry     beta= 0.70
     Davidson diagonalization with overlap
     ethr =  7.61E-06,  avg # of iterations =  4.7

     total cpu time spent up to now is      131.2 secs

     total energy              =    -520.61377542 Ry
     estimated scf accuracy    <       0.04602232 Ry

     iteration #  3     ecut=    60.00 Ry     beta= 0.70
     Davidson diagonalization with overlap
     ethr =  7.61E-06,  avg # of iterations =  3.3

     total cpu time spent up to now is      133.7 secs

     total energy              =    -520.61792750 Ry
     estimated scf accuracy    <       0.00190821 Ry

     iteration #  4     ecut=    60.00 Ry     beta= 0.70
     Davidson diagonalization with overlap
     ethr =  4.44E-06,  avg # of iterations =  2.2

     total cpu time spent up to now is      135.9 secs

     total energy              =    -520.61834984 Ry
     estimated scf accuracy    <       0.00026573 Ry

     iteration #  5     ecut=    60.00 Ry     beta= 0.70
     Davidson diagonalization with overlap
     ethr =  6.18E-07,  avg # of iterations =  3.9

     total cpu time spent up to now is      138.6 secs

     total energy              =    -520.61842482 Ry
     estimated scf accuracy    <       0.00010087 Ry

     iteration #  6     ecut=    60.00 Ry     beta= 0.70
     Davidson diagonalization with overlap
     ethr =  2.35E-07,  avg # of iterations =  2.1

     total cpu time spent up to now is      141.0 secs

     total energy              =    -520.61843375 Ry
     estimated scf accuracy    <       0.00004037 Ry

     iteration #  7     ecut=    60.00 Ry     beta= 0.70
     Davidson diagonalization with overlap
     ethr =  9.39E-08,  avg # of iterations =  2.4

     total cpu time spent up to now is      143.3 secs

     total energy              =    -520.61844061 Ry
     estimated scf accuracy    <       0.00000427 Ry

     iteration #  8     ecut=    60.00 Ry     beta= 0.70
     Davidson diagonalization with overlap
     ethr =  9.94E-09,  avg # of iterations =  9.7

     total cpu time spent up to now is      147.4 secs

     total energy              =    -520.61844717 Ry
     estimated scf accuracy    <       0.00000516 Ry

     iteration #  9     ecut=    60.00 Ry     beta= 0.70
     Davidson diagonalization with overlap
     ethr =  9.94E-09,  avg # of iterations =  1.8

     total cpu time spent up to now is      149.5 secs

     total energy              =    -520.61844703 Ry
     estimated scf accuracy    <       0.00000241 Ry

     iteration # 10     ecut=    60.00 Ry     beta= 0.70
     Davidson diagonalization with overlap
     ethr =  5.61E-09,  avg # of iterations =  2.2

     total cpu time spent up to now is      151.9 secs

     total energy              =    -520.61844734 Ry
     estimated scf accuracy    <       0.00000043 Ry

     iteration # 11     ecut=    60.00 Ry     beta= 0.70
     Davidson diagonalization with overlap
     c_bands:  1 eigenvalues not converged
     c_bands:  3 eigenvalues not converged
     c_bands:  1 eigenvalues not converged
     c_bands:  1 eigenvalues not converged
     c_bands:  1 eigenvalues not converged
     ethr =  1.01E-09,  avg # of iterations = 16.3

     total cpu time spent up to now is      157.1 secs

     total energy              =    -520.61844844 Ry
     estimated scf accuracy    <       0.00000024 Ry

     iteration # 12     ecut=    60.00 Ry     beta= 0.70
     Davidson diagonalization with overlap
     ethr =  5.68E-10,  avg # of iterations =  2.2

     total cpu time spent up to now is      159.4 secs

     End of self-consistent calculation

     =================== HUBBARD OCCUPATIONS ===================
     ------------------------ ATOM    3 ------------------------
     Tr[ns(  3)] =   5.23112
     eigenvalues:
       0.215  0.316  0.400  0.711  0.973
     eigenvectors (columns):
      -0.548  0.000 -0.204  0.001  0.811
       0.001  0.959  0.001  0.284  0.000
       0.798 -0.001 -0.419 -0.001  0.433
      -0.251  0.000 -0.885  0.003 -0.393
      -0.002  0.284 -0.003 -0.959 -0.001
     occupation matrix ns (before diag.):
       0.722  0.000  0.282 -0.208 -0.001
       0.000  0.348 -0.000  0.000 -0.107
       0.282 -0.000  0.390 -0.060  0.000
      -0.208  0.000 -0.060  0.477 -0.001
      -0.001 -0.107  0.000 -0.001  0.679

     Number of occupied Hubbard levels =    5.2311

          k = 0.0000 0.0000 0.0000 (  3893 PWs)   bands (ev):

   -72.8700 -42.2985 -41.5116 -40.9106 -11.8923 -10.5764 -10.2350 -10.0150
     0.8034   1.5128   2.1932   2.6822   3.0739   3.9089   4.2151   4.3639
     4.6536   5.4634   5.6357   5.7357   6.1286   7.1009   8.0448  10.1187
    10.4355  11.7750

          k =-0.0000 0.0012 0.1870 (  3895 PWs)   bands (ev):

   -72.8700 -42.2986 -41.5116 -40.9106 -11.6983 -10.7205 -10.3132 -10.0549
     0.9886   1.7932   1.9992   3.0652   3.0763   3.8726   4.0678   4.4777
     4.6647   4.9999   5.5745   5.6504   5.8357   7.0597   8.1470   9.8326
    10.4828  12.8811

          k = 0.0000-0.0024-0.3740 (  3896 PWs)   bands (ev):

   -72.8699 -42.2987 -41.5116 -40.9106 -11.3759 -10.9851 -10.3876 -10.1082
     1.2142   1.8557   2.5462   3.0334   3.0724   3.5105   3.8688   4.5668
     4.5866   4.8550   5.5077   5.5604   5.6935   7.0179   8.2171   9.6095
    10.5304  14.4811

          k =-0.0000 0.1196-0.0957 (  3890 PWs)   bands (ev):

   -72.8700 -42.2985 -41.5116 -40.9106 -11.7921 -10.6059 -10.3599 -10.0026
     1.0296   1.5171   2.1787   2.7908   3.1099   3.9333   4.1516   4.3060
     4.7551   5.0501   5.5257   5.6858   6.1263   7.1241   8.0453  10.1796
    10.4810  12.5616

          k =-0.0000 0.1208 0.0913 (  3904 PWs)   bands (ev):

   -72.8700 -42.2986 -41.5116 -40.9106 -11.7346 -10.8064 -10.2100 -10.0103
     0.9456   1.8006   2.0632   2.9003   3.0406   3.8385   3.9099   4.4809
     4.6935   5.2639   5.6113   5.6395   5.9089   7.0965   8.1439   9.8220
    10.4364  12.5357

          k =-0.0000 0.1172-0.4697 (  3922 PWs)   bands (ev):

   -72.8700 -42.2987 -41.5116 -40.9106 -11.4038 -11.0848 -10.2881 -10.0532
     1.2860   1.6396   2.4525   3.0396   3.1666   3.5207   3.8947   4.3828
     4.5868   5.1170   5.4811   5.5456   5.7443   7.0536   8.2434   9.5908
    10.4842  13.8668

          k =-0.0000 0.1184-0.2827 (  3907 PWs)   bands (ev):

   -72.8699 -42.2986 -41.5116 -40.9106 -11.5549 -10.7905 -10.4401 -10.0437
     1.2186   1.7821   2.2248   3.0012   3.1100   3.8348   3.8931   4.4280
     4.5458   4.9515   5.4734   5.5964   5.8331   7.0859   8.1671   9.9114
    10.5279  14.1128

          k = 0.0000-0.2392 0.1914 (  3908 PWs)   bands (ev):

   -72.8700 -42.2985 -41.5116 -40.9106 -11.6669 -10.6832 -10.4585  -9.9926
     1.0269   1.8233   2.3973   2.8340   3.1484   3.6382   3.9641   4.2405
     4.6097   5.0452   5.5151   5.6355   6.1276   7.1475   8.0419  10.2447
    10.5259  13.8499

          k = 0.0000-0.2380 0.3784 (  3904 PWs)   bands (ev):

   -72.8700 -42.2986 -41.5116 -40.9106 -11.6003 -10.8746 -10.3273 -10.0018
     1.3321   1.7615   1.9704   2.9249   3.0723   3.7955   3.9344   4.4301
     4.7998   4.9475   5.4779   5.5860   5.8616   7.1210   8.1760   9.9056
    10.4817  13.4544

          k = 0.0000-0.2416-0.1826 (  3900 PWs)   bands (ev):

   -72.8700 -42.2987 -41.5116 -40.9106 -11.4238 -11.1731 -10.1973 -10.0090
     1.1733   1.7561   2.3267   3.0086   3.0582   3.7148   3.9225   4.1396
     4.5948   5.2469   5.5372   5.6024   5.8093   7.0877   8.2161   9.5569
    10.4378  13.7581

          k = 0.2497-0.0619-0.1384 (  3913 PWs)   bands (ev):

   -72.8671 -42.2956 -41.5059 -40.9501 -11.3380 -10.5862 -10.1743 -10.0077
     1.3870   1.6653   2.1358   2.4252   2.8175   3.0639   3.8347   4.0211
     4.3018   5.0320   5.3600   5.5374   6.1761   6.9821   8.0480   9.7512
    10.1623  13.9647

          k = 0.2497-0.0607 0.0486 (  3893 PWs)   bands (ev):

   -72.8671 -42.2955 -41.5059 -40.9501 -11.4379 -10.4658 -10.2130  -9.9731
     1.4099   1.8074   2.0530   2.4430   2.8573   2.9051   3.7175   3.9912
     4.3214   5.0360   5.4200   5.6084   6.1050   7.0825   7.9742   9.8137
    10.1377  13.6276

          k = 0.2497-0.0642-0.5124 (  3920 PWs)   bands (ev):

   -72.8671 -42.2956 -41.5059 -40.9501 -11.2515 -10.5462 -10.3105 -10.0229
     1.3192   1.6671   2.1969   2.5709   2.7263   3.0295   3.9884   4.0965
     4.4221   4.9988   5.0827   5.5100   6.2252   6.9792   8.0418   9.6978
    10.0789  14.7326

          k = 0.2497-0.0631-0.3254 (  3917 PWs)   bands (ev):

   -72.8671 -42.2956 -41.5059 -40.9501 -11.0736 -10.7502 -10.2628 -10.0617
     1.3149   1.6420   2.1036   2.4581   2.8004   3.3512   3.9139   4.2019
     4.3851   4.9300   5.0565   5.4991   6.2405   6.8971   8.1090   9.8520
     9.9149  15.1034

          k = 0.2497 0.0578-0.2341 (  3919 PWs)   bands (ev):

   -72.8671 -42.2956 -41.5059 -40.9501 -11.2543 -10.5450 -10.3078 -10.0234
     1.3181   1.6673   2.1976   2.5660   2.7259   3.0284   3.9852   4.0955
     4.4270   5.0094   5.0766   5.5120   6.2261   6.9801   8.0420   9.6950
    10.0793  14.7233

          k = 0.2497 0.0590-0.0471 (  3898 PWs)   bands (ev):

   -72.8671 -42.2955 -41.5059 -40.9501 -11.4397 -10.4657 -10.2108  -9.9730
     1.4100   1.8059   2.0542   2.4406   2.8427   2.9184   3.7165   3.9867
     4.3288   5.0278   5.4337   5.6076   6.1009   7.0833   7.9743   9.8130
    10.1386  13.6226

          k = 0.2497 0.0554-0.6081 (  3912 PWs)   bands (ev):

   -72.8671 -42.2956 -41.5059 -40.9501 -11.3374 -10.5848 -10.1762 -10.0081
     1.3848   1.6691   2.1347   2.4231   2.8275   3.0568   3.8350   4.0206
     4.3069   5.0274   5.3551   5.5384   6.1786   6.9835   8.0465   9.7500
    10.1610  13.9746

          k = 0.2497 0.0566-0.4211 (  3914 PWs)   bands (ev):

   -72.8671 -42.2956 -41.5059 -40.9501 -11.0734 -10.7481 -10.2646 -10.0625
     1.3145   1.6415   2.1020   2.4573   2.8016   3.3572   3.9178   4.1986
     4.3820   4.9262   5.0595   5.5003   6.2421   6.8981   8.1066   9.8498
     9.9133  15.1095

          k = 0.2497-0.3011 0.0530 (  3925 PWs)   bands (ev):

   -72.8671 -42.2956 -41.5059 -40.9501 -11.1835 -10.6425 -10.3060 -10.0103
     1.4794   1.8098   2.1125   2.4637   2.7343   3.1350   3.6950   4.0335
     4.4069   4.9815   5.1386   5.5698   6.2103   6.9899   8.0618   9.6955
    10.1609  14.7207

          k = 0.2497-0.2999 0.2400 (  3915 PWs)   bands (ev):

   -72.8671 -42.2955 -41.5059 -40.9501 -11.3159 -10.4855 -10.3481  -9.9745
     1.4007   1.9313   2.2639   2.5255   2.7006   2.9053   3.5417   3.9508
     4.5204   5.0032   5.1466   5.6258   6.1756   7.1019   7.9673   9.7496
    10.1196  14.5081

          k = 0.2497-0.3035-0.3210 (  3912 PWs)   bands (ev):

   -72.8671 -42.2956 -41.5059 -40.9501 -11.2850 -10.6509 -10.1847  -9.9970
     1.6122   1.7838   1.9085   2.5479   2.8325   3.0891   3.5823   3.8933
     4.1901   5.0965   5.4027   5.6068   6.1538   6.9887   8.0637   9.7657
    10.2444  13.8936

          k = 0.2497-0.3023-0.1340 (  3920 PWs)   bands (ev):

   -72.8671 -42.2956 -41.5059 -40.9501 -11.0682 -10.8773 -10.1602 -10.0290
     1.5681   1.7121   1.9347   2.5594   2.8248   3.1173   3.5542   4.1827
     4.2997   4.8916   5.3722   5.5583   6.2082   6.8902   8.1274   9.9409
    10.0127  14.6319

          k = 0.2497-0.1815-0.0427 (  3913 PWs)   bands (ev):

   -72.8671 -42.2956 -41.5059 -40.9501 -11.2827 -10.6517 -10.1868  -9.9970
     1.6103   1.7854   1.9061   2.5571   2.8334   3.0805   3.5833   3.8980
     4.1914   5.1011   5.3879   5.6127   6.1564   6.9872   8.0629   9.7664
    10.2421  13.8941

          k = 0.2497-0.1803 0.1443 (  3921 PWs)   bands (ev):

   -72.8671 -42.2955 -41.5059 -40.9501 -11.3135 -10.4862 -10.3504  -9.9745
     1.3989   1.9311   2.2674   2.5315   2.7054   2.8991   3.5392   3.9524
     4.5177   4.9979   5.1505   5.6253   6.1761   7.1010   7.9673   9.7490
    10.1202  14.5185

          k = 0.2497-0.1839-0.4167 (  3924 PWs)   bands (ev):

   -72.8671 -42.2956 -41.5059 -40.9501 -11.1839 -10.6448 -10.3041 -10.0093
     1.4800   1.8137   2.1107   2.4681   2.7257   3.1401   3.6858   4.0361
     4.4064   4.9862   5.1385   5.5667   6.2068   6.9895   8.0631   9.6989
    10.1637  14.7099

          k = 0.2497-0.1827-0.2297 (  3913 PWs)   bands (ev):

   -72.8671 -42.2956 -41.5059 -40.9501 -11.0679 -10.8795 -10.1584 -10.0287
     1.5695   1.7094   1.9384   2.5627   2.8202   3.1167   3.5484   4.1862
     4.2990   4.8887   5.3814   5.5541   6.2058   6.8891   8.1293   9.9419
    10.0158  14.6290

          k =-0.4993 0.1237 0.2768 (  3924 PWs)   bands (ev):

   -72.8647 -42.2925 -41.5002 -40.9892 -10.7071 -10.3806 -10.2388 -10.0814
     0.6962   1.2364   1.8550   2.2747   2.6032   3.5505   3.8795   4.2996
     4.5408   4.8492   4.8540   5.3095   6.0018   6.8347   7.9442  10.0373
    10.1619  15.3432

          k =-0.4993 0.1249 0.4638 (  3919 PWs)   bands (ev):

   -72.8647 -42.2925 -41.5002 -40.9892 -10.7495 -10.4000 -10.2230 -10.0416
     0.9048   1.2801   1.9608   2.3762   2.6073   3.4628   3.6853   4.2415
     4.4156   4.5854   4.9490   5.1736   5.9985   7.0040   7.9249   9.8517
    10.1187  15.8537

          k =-0.4993 0.1213-0.0972 (  3936 PWs)   bands (ev):

   -72.8647 -42.2925 -41.5002 -40.9892 -10.7866 -10.4202 -10.2064 -10.0070
     1.1000   1.3843   2.1901   2.4339   2.6788   3.0880   3.4294   4.1920
     4.3451   4.5765   4.8829   5.0836   5.9902   7.1328   7.9102   9.6350
    10.1357  16.0118

          k =-0.4993 0.2433 0.1811 (  3933 PWs)   bands (ev):

   -72.8647 -42.2926 -41.5002 -40.9892 -10.7072 -10.3799 -10.2391 -10.0816
     0.7538   1.1493   1.8546   2.2884   2.5637   3.7230   3.8500   4.2447
     4.5207   4.8215   4.8766   5.3030   6.0010   6.8384   7.9366  10.0591
    10.1294  15.6962

          k =-0.4993 0.2445 0.3681 (  3926 PWs)   bands (ev):

   -72.8647 -42.2925 -41.5002 -40.9892 -10.7507 -10.4037 -10.2187 -10.0408
     0.8997   1.3045   1.9649   2.2315   2.8015   3.3666   3.6940   4.2201
     4.4250   4.5892   4.9713   5.1741   5.9965   7.0094   7.9244   9.8337
    10.1365  15.6467

          k =-0.4993 0.2410-0.1929 (  3915 PWs)   bands (ev):

   -72.8647 -42.2925 -41.5002 -40.9892 -10.7888 -10.4174 -10.2098 -10.0038
     1.1181   1.3543   2.1471   2.5212   2.7120   3.0165   3.4743   4.1571
     4.3002   4.5693   4.8669   5.1403   5.9938   7.1400   7.9098   9.6424
    10.1259  15.9905

          k =-0.4993 0.2422-0.0059 (  3927 PWs)   bands (ev):

   -72.8647 -42.2925 -41.5002 -40.9892 -10.7494 -10.4006 -10.2221 -10.0419
     0.8982   1.3057   1.9580   2.2320   2.7998   3.3699   3.6941   4.2304
     4.4319   4.5860   4.9707   5.1706   5.9975   7.0067   7.9219   9.8378
    10.1351  15.6328

          k =-0.4993-0.1155 0.4682 (  3926 PWs)   bands (ev):

   -72.8647 -42.2925 -41.5002 -40.9892 -10.7075 -10.3778 -10.2418 -10.0806
     0.7001   1.2355   1.8508   2.2641   2.5891   3.5529   3.8982   4.3104
     4.5492   4.8431   4.8577   5.3062   6.0026   6.8336   7.9388  10.0340
    10.1619  15.3321

          k =-0.4993-0.1143 0.6552 (  3915 PWs)   bands (ev):

   -72.8647 -42.2925 -41.5002 -40.9892 -10.7511 -10.4010 -10.2219 -10.0397
     0.9116   1.2773   1.9574   2.3710   2.5971   3.4648   3.6878   4.2507
     4.4117   4.5921   4.9489   5.1749   5.9984   7.0054   7.9226   9.8472
    10.1193  15.8709

          k =-0.4993-0.1179 0.0942 (  3930 PWs)   bands (ev):

   -72.8647 -42.2925 -41.5002 -40.9892 -10.7893 -10.4235 -10.2026 -10.0043
     1.1115   1.3808   2.1862   2.4279   2.6697   3.0882   3.4341   4.1874
     4.3460   4.5777   4.8896   5.0852   5.9892   7.1371   7.9098   9.6248
    10.1377  16.0200

     the Fermi energy is     7.0508 ev

!    total energy              =    -520.61844850 Ry
     total all-electron energy =     -3720.871707 Ry
     estimated scf accuracy    <       0.00000013 Ry
     smearing contrib. (-TS)   =      -0.00520140 Ry
     internal energy E=F+TS    =    -520.61324710 Ry

     The total energy is F=E-TS. E is the sum of the following terms:
     one-electron contribution =    -241.25618434 Ry
     hartree contribution      =     145.74276371 Ry
     xc contribution           =     -61.26715053 Ry
     ewald contribution        =    -185.33433917 Ry
     Hubbard energy            =       0.24558519 Ry
     one-center paw contrib.   =    -178.74392196 Ry

     convergence has been achieved in  12 iterations
     force_hub    :     44.27s CPU      6.22s WALL (       3 calls)
     dndtau       :     38.80s CPU      5.47s WALL (    2268 calls)
     dprojdtau    :      5.30s CPU      0.81s WALL (    2268 calls)
     calc_doverla :     21.81s CPU      2.95s WALL (    2268 calls)
     matel_dSdtau :     29.12s CPU      3.96s WALL (    4536 calls)

     Forces acting on atoms (cartesian axes, Ry/au):

     atom    1 type  1   force =     0.00171192   -0.00951187   -0.00741764
     atom    2 type  1   force =    -0.00057779    0.00656238   -0.01393721
     atom    3 type  3   force =    -0.00028588    0.00653882    0.00878456
     atom    4 type  2   force =    -0.00097443   -0.00685247    0.00583823
     atom    5 type  2   force =     0.00054235    0.00345999    0.00118680
     atom    6 type  2   force =     0.00016239   -0.00385895   -0.00277043
     atom    7 type  2   force =    -0.00057854    0.00366211    0.00831569

     Total force =     0.026594     Total SCF correction =     0.000669


     Computing stress (Cartesian axis) and pressure

     stres_hub    :    128.52s CPU     15.83s WALL (       3 calls)
     dprojdepsilo :    104.48s CPU     12.86s WALL (     972 calls)
     dprojdeps1   :     10.62s CPU      1.43s WALL (     972 calls)
     dprojdeps2   :     58.97s CPU      7.20s WALL (     972 calls)
     dprojdeps3   :     34.88s CPU      4.23s WALL (     972 calls)
          total   stress  (Ry/bohr**3)                   (kbar)     P=        8.70
   0.00005076  -0.00000288   0.00000216            7.47       -0.42        0.32
  -0.00000288   0.00010514   0.00003805           -0.42       15.47        5.60
   0.00000216   0.00003805   0.00002158            0.32        5.60        3.17

     Energy error            =      1.5E-03 Ry
     Gradient error          =      1.4E-02 Ry/Bohr
     Cell gradient error     =      1.5E+01 kbar

     number of scf cycles    =   3
     number of bfgs steps    =   2

     enthalpy           old  =    -520.6169904199 Ry
     enthalpy           new  =    -520.6184485027 Ry

     CASE: enthalpy          _new < enthalpy          _old

     new trust radius        =       0.0261939229 bohr
     new conv_thr            =       0.0000001394 Ry

     new unit-cell volume =    486.96260 a.u.^3 (    72.16041 Ang^3 )
     density =      3.85548 g/cm^3

CELL_PARAMETERS (angstrom)
   2.968167399   0.000004330   0.000241293
   1.504976607   6.155743767  -0.038879657
   2.967430373   3.150469409   3.929672219

ATOMIC_POSITIONS (angstrom)
Mg               3.4424308011        4.7962914972        1.4746637367
Mg               0.4804375236        1.0847218149        0.3583192471
Mn               4.9324825577        2.3180663715        2.5179117917
O                3.4708712091        6.8672270649        1.7516062935
O                4.9298787777        4.2842402749        2.8639701895
O                3.4488287437        2.8002494430        1.3557559041
O                4.9521177884        8.3328679424        3.8321891165



     Writing config-only to output data dir .\out\\qgan.save\ :
     XML data file
     NEW-OLD atomic charge density approx. for the potential
     New effective cutoffs (rho, wfc):  498.16   62.35

     Check: negative core charge=   -0.000002

     Atomic wfc used for Hubbard projectors are orthogonalized


     total cpu time spent up to now is      169.8 secs

     Self-consistent Calculation

     iteration #  1     ecut=    60.00 Ry     beta= 0.70
     Davidson diagonalization with overlap
     ethr =  1.00E-06,  avg # of iterations = 11.0

     =================== HUBBARD OCCUPATIONS ===================
     ------------------------ ATOM    3 ------------------------
     Tr[ns(  3)] =   5.23967
     eigenvalues:
       0.218  0.315  0.400  0.713  0.974
     eigenvectors (columns):
       0.548 -0.001  0.203  0.001  0.811
      -0.002 -0.959 -0.001  0.282  0.000
      -0.797  0.001  0.422 -0.001  0.433
       0.254 -0.001  0.884  0.003 -0.393
       0.002 -0.282  0.002 -0.959 -0.000
     occupation matrix ns (before diag.):
       0.723  0.000  0.281 -0.208 -0.001
       0.000  0.347 -0.000  0.000 -0.108
       0.281 -0.000  0.392 -0.061  0.000
      -0.208  0.000 -0.061  0.477 -0.001
      -0.001 -0.108  0.000 -0.001  0.681

     Number of occupied Hubbard levels =    5.2397

     total cpu time spent up to now is      175.5 secs

     total energy              =    -520.61905065 Ry
     estimated scf accuracy    <       0.00046009 Ry

     iteration #  2     ecut=    60.00 Ry     beta= 0.70
     Davidson diagonalization with overlap
     ethr =  1.07E-06,  avg # of iterations =  4.2

     total cpu time spent up to now is      178.4 secs

     total energy              =    -520.61873777 Ry
     estimated scf accuracy    <       0.00410842 Ry

     iteration #  3     ecut=    60.00 Ry     beta= 0.70
     Davidson diagonalization with overlap
     ethr =  1.07E-06,  avg # of iterations =  3.0

     total cpu time spent up to now is      180.8 secs

     total energy              =    -520.61915630 Ry
     estimated scf accuracy    <       0.00050048 Ry

     iteration #  4     ecut=    60.00 Ry     beta= 0.70
     Davidson diagonalization with overlap
     ethr =  1.07E-06,  avg # of iterations =  1.9

     total cpu time spent up to now is      182.9 secs

     total energy              =    -520.61924391 Ry
     estimated scf accuracy    <       0.00004958 Ry

     iteration #  5     ecut=    60.00 Ry     beta= 0.70
     Davidson diagonalization with overlap
     ethr =  1.15E-07,  avg # of iterations =  5.4

     total cpu time spent up to now is      185.8 secs

     total energy              =    -520.61928249 Ry
     estimated scf accuracy    <       0.00006477 Ry

     iteration #  6     ecut=    60.00 Ry     beta= 0.70
     Davidson diagonalization with overlap
     ethr =  1.15E-07,  avg # of iterations =  1.0

     total cpu time spent up to now is      187.8 secs

     total energy              =    -520.61928222 Ry
     estimated scf accuracy    <       0.00002778 Ry

     iteration #  7     ecut=    60.00 Ry     beta= 0.70
     Davidson diagonalization with overlap
     ethr =  6.46E-08,  avg # of iterations =  1.6

     total cpu time spent up to now is      190.0 secs

     total energy              =    -520.61928114 Ry
     estimated scf accuracy    <       0.00000964 Ry

     iteration #  8     ecut=    60.00 Ry     beta= 0.70
     Davidson diagonalization with overlap
     ethr =  2.24E-08,  avg # of iterations =  2.5

     total cpu time spent up to now is      192.5 secs

     total energy              =    -520.61928365 Ry
     estimated scf accuracy    <       0.00000044 Ry

     iteration #  9     ecut=    60.00 Ry     beta= 0.70
     Davidson diagonalization with overlap
     c_bands:  1 eigenvalues not converged
     c_bands:  2 eigenvalues not converged
     c_bands:  1 eigenvalues not converged
     c_bands:  1 eigenvalues not converged
     c_bands:  1 eigenvalues not converged
     c_bands:  3 eigenvalues not converged
     c_bands:  2 eigenvalues not converged
     c_bands:  1 eigenvalues not converged
     c_bands:  1 eigenvalues not converged
     c_bands:  4 eigenvalues not converged
     c_bands:  2 eigenvalues not converged
     c_bands:  1 eigenvalues not converged
     c_bands:  1 eigenvalues not converged
     c_bands:  2 eigenvalues not converged
     ethr =  1.01E-09,  avg # of iterations = 17.2

     total cpu time spent up to now is      198.6 secs

     total energy              =    -520.61928569 Ry
     estimated scf accuracy    <       0.00000193 Ry

     iteration # 10     ecut=    60.00 Ry     beta= 0.70
     Davidson diagonalization with overlap
     ethr =  1.01E-09,  avg # of iterations =  1.9

     total cpu time spent up to now is      200.8 secs

     total energy              =    -520.61928530 Ry
     estimated scf accuracy    <       0.00000138 Ry

     iteration # 11     ecut=    60.00 Ry     beta= 0.70
     Davidson diagonalization with overlap
     ethr =  1.01E-09,  avg # of iterations =  6.4

     total cpu time spent up to now is      204.1 secs

     total energy              =    -520.61928622 Ry
     estimated scf accuracy    <       0.00000092 Ry

     iteration # 12     ecut=    60.00 Ry     beta= 0.70
     Davidson diagonalization with overlap
     ethr =  1.01E-09,  avg # of iterations =  1.1

     total cpu time spent up to now is      206.3 secs

     total energy              =    -520.61928539 Ry
     estimated scf accuracy    <       0.00000100 Ry

     iteration # 13     ecut=    60.00 Ry     beta= 0.70
     Davidson diagonalization with overlap
     ethr =  1.01E-09,  avg # of iterations =  4.0

     total cpu time spent up to now is      209.0 secs

     End of self-consistent calculation

     =================== HUBBARD OCCUPATIONS ===================
     ------------------------ ATOM    3 ------------------------
     Tr[ns(  3)] =   5.23259
     eigenvalues:
       0.217  0.315  0.400  0.711  0.974
     eigenvectors (columns):
      -0.542  0.001  0.203  0.002  0.816
       0.002  0.961 -0.002  0.278  0.001
       0.800 -0.000  0.421 -0.002  0.426
      -0.257  0.002  0.884  0.003 -0.391
      -0.003  0.278  0.001 -0.961 -0.000
     occupation matrix ns (before diag.):
       0.728  0.001  0.279 -0.208 -0.001
       0.001  0.345 -0.000  0.000 -0.106
       0.279 -0.000  0.387 -0.058  0.001
      -0.208  0.000 -0.058  0.475 -0.001
      -0.001 -0.106  0.001 -0.001  0.681

     Number of occupied Hubbard levels =    5.2326

          k = 0.0000 0.0000 0.0000 (  3893 PWs)   bands (ev):

   -72.8831 -42.3094 -41.5285 -40.9225 -11.8923 -10.5802 -10.2520 -10.0167
     0.8057   1.5081   2.2002   2.6775   3.0729   3.8870   4.2001   4.3406
     4.6428   5.4517   5.6161   5.7030   6.1092   7.1000   8.0275  10.0962
    10.3953  11.7493

          k =-0.0000 0.0012 0.1873 (  3895 PWs)   bands (ev):

   -72.8830 -42.3095 -41.5285 -40.9225 -11.6968 -10.7249 -10.3304 -10.0572
     0.9913   1.7936   1.9924   3.0663   3.0743   3.8516   4.0536   4.4542
     4.6638   4.9814   5.5648   5.6192   5.8061   7.0582   8.1288   9.8092
    10.4416  12.8573

          k = 0.0000-0.0024-0.3745 (  3896 PWs)   bands (ev):

   -72.8830 -42.3096 -41.5285 -40.9225 -11.3688 -10.9938 -10.4053 -10.1110
     1.2175   1.8535   2.5436   3.0251   3.0690   3.5025   3.8495   4.5449
     4.5771   4.8522   5.4947   5.5308   5.6591   7.0158   8.2012   9.5828
    10.4883  14.4564

          k = 0.0000 0.1195-0.0958 (  3890 PWs)   bands (ev):

   -72.8831 -42.3094 -41.5285 -40.9225 -11.7912 -10.6080 -10.3794 -10.0042
     1.0289   1.5183   2.1799   2.7855   3.1094   3.9112   4.1437   4.2826
     4.7465   5.0306   5.5109   5.6540   6.1061   7.1226   8.0254  10.1570
    10.4403  12.5366

          k =-0.0000 0.1207 0.0914 (  3904 PWs)   bands (ev):

   -72.8831 -42.3095 -41.5285 -40.9225 -11.7349 -10.8089 -10.2271 -10.0127
     0.9471   1.7933   2.0704   2.8982   3.0384   3.8266   3.8889   4.4577
     4.6836   5.2497   5.5985   5.6082   5.8808   7.0949   8.1256   9.8006
    10.3956  12.5123

          k = 0.0000 0.1172-0.4704 (  3922 PWs)   bands (ev):

   -72.8830 -42.3096 -41.5285 -40.9225 -11.4009 -11.0894 -10.3056 -10.0564
     1.2878   1.6396   2.4479   3.0363   3.1626   3.5134   3.8750   4.3759
     4.5628   5.1108   5.4640   5.5158   5.7120   7.0515   8.2253   9.5684
    10.4425  13.8471

          k = 0.0000 0.1183-0.2831 (  3907 PWs)   bands (ev):

   -72.8830 -42.3095 -41.5285 -40.9225 -11.5515 -10.7953 -10.4584 -10.0463
     1.2178   1.7825   2.2274   2.9910   3.1082   3.8275   3.8723   4.4042
     4.5382   4.9409   5.4600   5.5659   5.8057   7.0838   8.1480   9.8875
    10.4863  14.0901

          k =-0.0000-0.2391 0.1917 (  3908 PWs)   bands (ev):

   -72.8830 -42.3094 -41.5285 -40.9225 -11.6643 -10.6867 -10.4783  -9.9942
     1.0219   1.8337   2.3983   2.8240   3.1486   3.6252   3.9416   4.2169
     4.6048   5.0271   5.5030   5.6043   6.1064   7.1455   8.0201  10.2219
    10.4848  13.8278

          k =-0.0000-0.2379 0.3789 (  3904 PWs)   bands (ev):

   -72.8830 -42.3095 -41.5285 -40.9225 -11.5996 -10.8766 -10.3455 -10.0048
     1.3312   1.7568   1.9768   2.9192   3.0703   3.7908   3.9136   4.4066
     4.7822   4.9396   5.4625   5.5553   5.8358   7.1189   8.1564   9.8838
    10.4405  13.4319

          k = 0.0000-0.2414-0.1828 (  3900 PWs)   bands (ev):

   -72.8831 -42.3096 -41.5285 -40.9225 -11.4255 -11.1733 -10.2145 -10.0122
     1.1721   1.7600   2.3222   3.0053   3.0561   3.7049   3.9024   4.1352
     4.5710   5.2323   5.5073   5.5908   5.7750   7.0856   8.1963   9.5381
    10.3965  13.7427

          k = 0.2492-0.0618-0.1386 (  3913 PWs)   bands (ev):

   -72.8803 -42.3066 -41.5230 -40.9610 -11.3401 -10.5947 -10.1873 -10.0143
     1.3838   1.6591   2.1331   2.4200   2.8147   3.0424   3.8267   4.0098
     4.2912   5.0233   5.3418   5.5240   6.1488   6.9755   8.0331   9.7241
    10.1324  13.9437

          k = 0.2492-0.0606 0.0486 (  3893 PWs)   bands (ev):

   -72.8803 -42.3065 -41.5229 -40.9610 -11.4404 -10.4738 -10.2264  -9.9795
     1.4057   1.8078   2.0445   2.4425   2.8474   2.8929   3.7078   3.9747
     4.3137   5.0212   5.4030   5.5990   6.0777   7.0730   7.9610   9.7860
    10.1077  13.6041

          k = 0.2492-0.0642-0.5131 (  3920 PWs)   bands (ev):

   -72.8803 -42.3065 -41.5230 -40.9610 -11.2515 -10.5558 -10.3254 -10.0286
     1.3125   1.6627   2.1974   2.5703   2.7099   3.0165   3.9789   4.0873
     4.4186   4.9784   5.0678   5.4980   6.1939   6.9736   8.0281   9.6697
    10.0523  14.7114

          k = 0.2492-0.0630-0.3259 (  3917 PWs)   bands (ev):

   -72.8803 -42.3066 -41.5230 -40.9610 -11.0693 -10.7637 -10.2779 -10.0674
     1.3100   1.6327   2.1061   2.4546   2.7767   3.3429   3.9100   4.1987
     4.3785   4.9139   5.0357   5.4855   6.2085   6.8930   8.0954   9.8275
     9.8853  15.0905

          k = 0.2492 0.0577-0.2345 (  3919 PWs)   bands (ev):

   -72.8803 -42.3065 -41.5230 -40.9610 -11.2542 -10.5548 -10.3228 -10.0290
     1.3115   1.6632   2.1984   2.5652   2.7096   3.0150   3.9762   4.0856
     4.4229   4.9889   5.0619   5.5001   6.1945   6.9751   8.0276   9.6683
    10.0520  14.7026

          k = 0.2492 0.0589-0.0472 (  3898 PWs)   bands (ev):

   -72.8803 -42.3065 -41.5229 -40.9610 -11.4422 -10.4737 -10.2242  -9.9794
     1.4057   1.8065   2.0455   2.4404   2.8333   2.9061   3.7067   3.9707
     4.3200   5.0134   5.4160   5.5987   6.0737   7.0737   7.9610   9.7854
    10.1086  13.5993

          k = 0.2492 0.0554-0.6090 (  3912 PWs)   bands (ev):

   -72.8803 -42.3066 -41.5230 -40.9610 -11.3395 -10.5934 -10.1890 -10.0148
     1.3817   1.6624   2.1319   2.4179   2.8253   3.0355   3.8267   4.0101
     4.2958   5.0186   5.3367   5.5253   6.1516   6.9764   8.0322   9.7219
    10.1319  13.9528

          k = 0.2492 0.0566-0.4217 (  3914 PWs)   bands (ev):

   -72.8803 -42.3066 -41.5230 -40.9610 -11.0691 -10.7617 -10.2795 -10.0683
     1.3099   1.6322   2.1042   2.4542   2.7778   3.3482   3.9144   4.1954
     4.3754   4.9098   5.0390   5.4867   6.2100   6.8940   8.0932   9.8260
     9.8833  15.0960

          k = 0.2492-0.3009 0.0531 (  3925 PWs)   bands (ev):

   -72.8803 -42.3065 -41.5230 -40.9610 -11.1834 -10.6505 -10.3228 -10.0158
     1.4686   1.8099   2.1152   2.4562   2.7188   3.1258   3.6899   4.0205
     4.4017   4.9577   5.1275   5.5565   6.1792   6.9851   8.0467   9.6698
    10.1340  14.7062

          k = 0.2491-0.2997 0.2403 (  3915 PWs)   bands (ev):

   -72.8803 -42.3065 -41.5230 -40.9610 -11.3168 -10.4893 -10.3686  -9.9796
     1.3896   1.9392   2.2654   2.5183   2.6852   2.8951   3.5351   3.9336
     4.5151   4.9783   5.1362   5.6155   6.1442   7.0953   7.9528   9.7217
    10.0935  14.4892

          k = 0.2492-0.3032-0.3215 (  3912 PWs)   bands (ev):

   -72.8803 -42.3065 -41.5230 -40.9610 -11.2876 -10.6573 -10.1997 -10.0031
     1.6034   1.7809   1.9067   2.5472   2.8223   3.0741   3.5755   3.8811
     4.1769   5.0866   5.3864   5.5918   6.1276   6.9818   8.0485   9.7385
    10.2156  13.8747

          k = 0.2492-0.3021-0.1342 (  3920 PWs)   bands (ev):

   -72.8803 -42.3066 -41.5230 -40.9610 -11.0672 -10.8875 -10.1750 -10.0349
     1.5633   1.6998   1.9379   2.5593   2.8112   3.0991   3.5434   4.1755
     4.2932   4.8809   5.3562   5.5423   6.1801   6.8860   8.1110   9.9189
     9.9801  14.6203

          k = 0.2492-0.1813-0.0428 (  3913 PWs)   bands (ev):

   -72.8803 -42.3065 -41.5230 -40.9610 -11.2853 -10.6582 -10.2017 -10.0030
     1.6021   1.7825   1.9044   2.5558   2.8232   3.0650   3.5766   3.8851
     4.1785   5.0912   5.3728   5.5972   6.1293   6.9811   8.0473   9.7401
    10.2128  13.8752

          k = 0.2492-0.1801 0.1445 (  3921 PWs)   bands (ev):

   -72.8803 -42.3065 -41.5230 -40.9611 -11.3145 -10.4899 -10.3709  -9.9796
     1.3881   1.9386   2.2692   2.5236   2.6893   2.8894   3.5329   3.9352
     4.5130   4.9731   5.1398   5.6149   6.1446   7.0945   7.9529   9.7211
    10.0940  14.4991

          k = 0.2492-0.1837-0.4173 (  3924 PWs)   bands (ev):

   -72.8803 -42.3065 -41.5230 -40.9610 -11.1838 -10.6526 -10.3210 -10.0149
     1.4690   1.8134   2.1136   2.4605   2.7109   3.1311   3.6815   4.0230
     4.4010   4.9622   5.1272   5.5534   6.1762   6.9839   8.0485   9.6719
    10.1373  14.6964

          k = 0.2492-0.1825-0.2300 (  3913 PWs)   bands (ev):

   -72.8802 -42.3066 -41.5230 -40.9610 -11.0670 -10.8895 -10.1733 -10.0345
     1.5645   1.6975   1.9414   2.5621   2.8073   3.0989   3.5375   4.1793
     4.2919   4.8783   5.3649   5.5384   6.1779   6.8848   8.1128   9.9193
     9.9835  14.6178

          k =-0.4984 0.1236 0.2772 (  3924 PWs)   bands (ev):

   -72.8780 -42.3036 -41.5174 -40.9992 -10.7078 -10.4041 -10.2372 -10.0976
     0.6954   1.2258   1.8495   2.2666   2.5933   3.5354   3.8715   4.2790
     4.5306   4.8452   4.8468   5.3106   5.9786   6.8169   7.9332  10.0141
    10.1330  15.3298

          k =-0.4984 0.1248 0.4645 (  3919 PWs)   bands (ev):

   -72.8779 -42.3036 -41.5174 -40.9992 -10.7510 -10.4213 -10.2233 -10.0573
     0.9051   1.2658   1.9605   2.3693   2.5970   3.4505   3.6773   4.2296
     4.4007   4.5747   4.9408   5.1695   5.9753   6.9881   7.9152   9.8283
    10.0881  15.8475

          k =-0.4983 0.1212-0.0973 (  3936 PWs)   bands (ev):

   -72.8779 -42.3036 -41.5174 -40.9992 -10.7886 -10.4403 -10.2078 -10.0226
     1.0967   1.3725   2.1959   2.4275   2.6690   3.0786   3.4191   4.1808
     4.3363   4.5519   4.8819   5.0709   5.9668   7.1183   7.9019   9.6105
    10.1038  16.0241

          k =-0.4983 0.2431 0.1814 (  3933 PWs)   bands (ev):

   -72.8780 -42.3036 -41.5174 -40.9992 -10.7079 -10.4036 -10.2371 -10.0980
     0.7549   1.1363   1.8503   2.2785   2.5557   3.7083   3.8385   4.2232
     4.5161   4.8145   4.8700   5.3039   5.9779   6.8205   7.9257  10.0346
    10.1019  15.6780

          k =-0.4984 0.2443 0.3687 (  3926 PWs)   bands (ev):

   -72.8779 -42.3036 -41.5174 -40.9992 -10.7521 -10.4247 -10.2193 -10.0566
     0.8987   1.2918   1.9639   2.2239   2.7938   3.3544   3.6836   4.2086
     4.4130   4.5760   4.9630   5.1698   5.9733   6.9938   7.9147   9.8112
    10.1052  15.6362

          k =-0.4983 0.2408-0.1931 (  3915 PWs)   bands (ev):

   -72.8779 -42.3036 -41.5174 -40.9992 -10.7909 -10.4373 -10.2116 -10.0191
     1.1145   1.3430   2.1501   2.5207   2.7010   3.0036   3.4664   4.1493
     4.2871   4.5445   4.8655   5.1281   5.9703   7.1255   7.9016   9.6183
    10.0940  15.9956

          k =-0.4983 0.2419-0.0059 (  3927 PWs)   bands (ev):

   -72.8779 -42.3036 -41.5174 -40.9992 -10.7508 -10.4221 -10.2221 -10.0578
     0.8973   1.2924   1.9576   2.2241   2.7923   3.3574   3.6841   4.2178
     4.4202   4.5726   4.9631   5.1662   5.9743   6.9913   7.9124   9.8143
    10.1044  15.6233

          k =-0.4984-0.1155 0.4689 (  3926 PWs)   bands (ev):

   -72.8780 -42.3036 -41.5174 -40.9992 -10.7082 -10.4017 -10.2394 -10.0970
     0.6990   1.2247   1.8452   2.2569   2.5804   3.5375   3.8882   4.2904
     4.5390   4.8373   4.8518   5.3075   5.9794   6.8161   7.9281  10.0101
    10.1339  15.3192

          k =-0.4984-0.1143 0.6562 (  3915 PWs)   bands (ev):

   -72.8779 -42.3036 -41.5174 -40.9992 -10.7526 -10.4221 -10.2224 -10.0554
     0.9113   1.2633   1.9575   2.3646   2.5877   3.4516   3.6798   4.2379
     4.3980   4.5806   4.9408   5.1703   5.9752   6.9898   7.9130   9.8241
    10.0887  15.8641

          k =-0.4983-0.1179 0.0944 (  3930 PWs)   bands (ev):

   -72.8779 -42.3036 -41.5174 -40.9992 -10.7912 -10.4432 -10.2045 -10.0199
     1.1070   1.3700   2.1921   2.4222   2.6613   3.0781   3.4231   4.1768
     4.3365   4.5536   4.8881   5.0719   5.9658   7.1224   7.9015   9.6016
    10.1052  16.0311

     the Fermi energy is     7.0435 ev

!    total energy              =    -520.61928686 Ry
     total all-electron energy =     -3720.872545 Ry
     estimated scf accuracy    <       0.00000010 Ry
     smearing contrib. (-TS)   =      -0.00518615 Ry
     internal energy E=F+TS    =    -520.61410071 Ry

     The total energy is F=E-TS. E is the sum of the following terms:
     one-electron contribution =    -240.88457510 Ry
     hartree contribution      =     145.53416321 Ry
     xc contribution           =     -61.25920101 Ry
     ewald contribution        =    -185.50712698 Ry
     Hubbard energy            =       0.24548933 Ry
     one-center paw contrib.   =    -178.74285017 Ry

     convergence has been achieved in  13 iterations
     force_hub    :     59.81s CPU      8.31s WALL (       4 calls)
     dndtau       :     52.19s CPU      7.33s WALL (    3024 calls)
     dprojdtau    :      7.22s CPU      1.11s WALL (    3024 calls)
     calc_doverla :     29.20s CPU      3.93s WALL (    3024 calls)
     matel_dSdtau :     38.53s CPU      5.28s WALL (    6048 calls)

     Forces acting on atoms (cartesian axes, Ry/au):

     atom    1 type  1   force =     0.00155864   -0.00554889   -0.00673700
     atom    2 type  1   force =    -0.00046450    0.00587665   -0.00767525
     atom    3 type  3   force =    -0.00007835    0.00744944    0.00422993
     atom    4 type  2   force =    -0.00081058   -0.00604640    0.00407886
     atom    5 type  2   force =     0.00044144    0.00240612   -0.00017111
     atom    6 type  2   force =     0.00001042   -0.00707605   -0.00119363
     atom    7 type  2   force =    -0.00065706    0.00293914    0.00746819

     Total force =     0.020539     Total SCF correction =     0.000463


     Computing stress (Cartesian axis) and pressure

     stres_hub    :    169.44s CPU     21.01s WALL (       4 calls)
     dprojdepsilo :    137.69s CPU     17.06s WALL (    1296 calls)
     dprojdeps1   :     13.89s CPU      1.89s WALL (    1296 calls)
     dprojdeps2   :     77.53s CPU      9.55s WALL (    1296 calls)
     dprojdeps3   :     46.22s CPU      5.61s WALL (    1296 calls)
          total   stress  (Ry/bohr**3)                   (kbar)     P=        4.84
  -0.00000462  -0.00000401   0.00000296           -0.68       -0.59        0.43
  -0.00000401   0.00007729   0.00004072           -0.59       11.37        5.99
   0.00000296   0.00004072   0.00002601            0.43        5.99        3.83

     Energy error            =      8.4E-04 Ry
     Gradient error          =      7.7E-03 Ry/Bohr
     Cell gradient error     =      1.1E+01 kbar

     number of scf cycles    =   4
     number of bfgs steps    =   3

     enthalpy           old  =    -520.6184485027 Ry
     enthalpy           new  =    -520.6192868642 Ry

     CASE: enthalpy          _new < enthalpy          _old

     new trust radius        =       0.0392526353 bohr
     new conv_thr            =       0.0000000768 Ry

     new unit-cell volume =    487.68387 a.u.^3 (    72.26729 Ang^3 )
     density =      3.84978 g/cm^3

CELL_PARAMETERS (angstrom)
   2.971619262  -0.000643701   0.000770229
   1.505341653   6.165869724  -0.032938299
   2.970887502   3.158939019   3.927641616

ATOMIC_POSITIONS (angstrom)
Mg               3.4486008205        4.7911067923        1.4651484553
Mg               0.4798906420        1.0978265787        0.3413485060
Mn               4.9376353873        2.3225976953        2.5244778468
O                3.4719862392        6.8792541174        1.7689535790
O                4.9360994749        4.2954485147        2.8642629581
O                3.4527529263        2.8000648290        1.3561380366
O                4.9556578351        8.3572184623        3.8469099416



     Writing config-only to output data dir .\out\\qgan.save\ :
     XML data file
     NEW-OLD atomic charge density approx. for the potential
     New effective cutoffs (rho, wfc):  496.90   62.21

     Check: negative core charge=   -0.000002

     Atomic wfc used for Hubbard projectors are orthogonalized


     total cpu time spent up to now is      219.3 secs

     Self-consistent Calculation

     iteration #  1     ecut=    60.00 Ry     beta= 0.70
     Davidson diagonalization with overlap
     ethr =  1.00E-06,  avg # of iterations = 11.7

     =================== HUBBARD OCCUPATIONS ===================
     ------------------------ ATOM    3 ------------------------
     Tr[ns(  3)] =   5.24172
     eigenvalues:
       0.219  0.313  0.400  0.714  0.975
     eigenvectors (columns):
       0.542  0.001  0.202  0.002 -0.816
      -0.002  0.962 -0.003  0.274 -0.001
      -0.799 -0.001  0.423 -0.002 -0.426
       0.259  0.003  0.883  0.002  0.391
       0.003  0.274  0.001 -0.962 -0.000
     occupation matrix ns (before diag.):
       0.729  0.001  0.278 -0.209 -0.001
       0.001  0.343 -0.000 -0.000 -0.106
       0.278 -0.000  0.389 -0.058  0.001
      -0.209 -0.000 -0.058  0.475 -0.001
      -0.001 -0.106  0.001 -0.001  0.684

     Number of occupied Hubbard levels =    5.2417

     total cpu time spent up to now is      225.5 secs

     total energy              =    -520.61970943 Ry
     estimated scf accuracy    <       0.00083496 Ry

     iteration #  2     ecut=    60.00 Ry     beta= 0.70
     Davidson diagonalization with overlap
     ethr =  1.94E-06,  avg # of iterations =  4.4

     total cpu time spent up to now is      228.3 secs

     total energy              =    -520.61916405 Ry
     estimated scf accuracy    <       0.00708230 Ry

     iteration #  3     ecut=    60.00 Ry     beta= 0.70
     Davidson diagonalization with overlap
     ethr =  1.94E-06,  avg # of iterations =  3.8

     total cpu time spent up to now is      230.8 secs

     total energy              =    -520.61990221 Ry
     estimated scf accuracy    <       0.00093711 Ry

     iteration #  4     ecut=    60.00 Ry     beta= 0.70
     Davidson diagonalization with overlap
     ethr =  1.94E-06,  avg # of iterations =  1.9

     total cpu time spent up to now is      232.9 secs

     total energy              =    -520.62006530 Ry
     estimated scf accuracy    <       0.00011063 Ry

     iteration #  5     ecut=    60.00 Ry     beta= 0.70
     Davidson diagonalization with overlap
     ethr =  2.57E-07,  avg # of iterations =  4.9

     total cpu time spent up to now is      235.8 secs

     total energy              =    -520.62012605 Ry
     estimated scf accuracy    <       0.00007435 Ry

     iteration #  6     ecut=    60.00 Ry     beta= 0.70
     Davidson diagonalization with overlap
     ethr =  1.73E-07,  avg # of iterations =  1.3

     total cpu time spent up to now is      238.0 secs

     total energy              =    -520.62012721 Ry
     estimated scf accuracy    <       0.00002969 Ry

     iteration #  7     ecut=    60.00 Ry     beta= 0.70
     Davidson diagonalization with overlap
     ethr =  6.90E-08,  avg # of iterations =  2.0

     total cpu time spent up to now is      240.2 secs

     total energy              =    -520.62012765 Ry
     estimated scf accuracy    <       0.00000897 Ry

     iteration #  8     ecut=    60.00 Ry     beta= 0.70
     Davidson diagonalization with overlap
     ethr =  2.09E-08,  avg # of iterations =  2.7

     total cpu time spent up to now is      242.7 secs

     total energy              =    -520.62012962 Ry
     estimated scf accuracy    <       0.00000099 Ry

     iteration #  9     ecut=    60.00 Ry     beta= 0.70
     Davidson diagonalization with overlap
     c_bands:  3 eigenvalues not converged
     c_bands:  2 eigenvalues not converged
     c_bands:  3 eigenvalues not converged
     c_bands:  1 eigenvalues not converged
     ethr =  2.31E-09,  avg # of iterations = 14.8

     total cpu time spent up to now is      248.2 secs

     total energy              =    -520.62013265 Ry
     estimated scf accuracy    <       0.00000122 Ry

     iteration # 10     ecut=    60.00 Ry     beta= 0.70
     Davidson diagonalization with overlap
     ethr =  2.31E-09,  avg # of iterations =  1.4

     total cpu time spent up to now is      250.3 secs

     total energy              =    -520.62013257 Ry
     estimated scf accuracy    <       0.00000064 Ry

     iteration # 11     ecut=    60.00 Ry     beta= 0.70
     Davidson diagonalization with overlap
     ethr =  1.48E-09,  avg # of iterations =  6.4

     total cpu time spent up to now is      253.3 secs

     total energy              =    -520.62013313 Ry
     estimated scf accuracy    <       0.00000036 Ry

     iteration # 12     ecut=    60.00 Ry     beta= 0.70
     Davidson diagonalization with overlap
     ethr =  8.33E-10,  avg # of iterations =  2.3

     total cpu time spent up to now is      255.7 secs

     total energy              =    -520.62013201 Ry
     estimated scf accuracy    <       0.00000015 Ry

     iteration # 13     ecut=    60.00 Ry     beta= 0.70
     Davidson diagonalization with overlap
     ethr =  3.55E-10,  avg # of iterations = 11.1

     total cpu time spent up to now is      259.9 secs

     total energy              =    -520.62013353 Ry
     estimated scf accuracy    <       0.00000057 Ry

     iteration # 14     ecut=    60.00 Ry     beta= 0.70
     Davidson diagonalization with overlap
     ethr =  3.55E-10,  avg # of iterations =  4.4

     total cpu time spent up to now is      262.6 secs

     total energy              =    -520.62013376 Ry
     estimated scf accuracy    <       0.00000008 Ry

     iteration # 15     ecut=    60.00 Ry     beta= 0.70
     Davidson diagonalization with overlap
     ethr =  1.85E-10,  avg # of iterations =  5.0

     total cpu time spent up to now is      265.5 secs

     total energy              =    -520.62013386 Ry
     estimated scf accuracy    <       0.00000010 Ry

     iteration # 16     ecut=    60.00 Ry     beta= 0.70
     Davidson diagonalization with overlap
     ethr =  1.85E-10,  avg # of iterations =  2.7

     total cpu time spent up to now is      267.8 secs

     End of self-consistent calculation

     =================== HUBBARD OCCUPATIONS ===================
     ------------------------ ATOM    3 ------------------------
     Tr[ns(  3)] =   5.23414
     eigenvalues:
       0.218  0.313  0.399  0.713  0.974
     eigenvectors (columns):
      -0.535 -0.000  0.202  0.002 -0.820
       0.002 -0.963 -0.003  0.269 -0.001
       0.803  0.000  0.423 -0.002 -0.420
      -0.262 -0.003  0.884  0.002  0.388
      -0.003 -0.269  0.000 -0.963 -0.000
     occupation matrix ns (before diag.):
       0.734  0.001  0.276 -0.209 -0.001
       0.001  0.342 -0.000 -0.000 -0.104
       0.276 -0.000  0.384 -0.056  0.001
      -0.209 -0.000 -0.056  0.473 -0.001
      -0.001 -0.104  0.001 -0.001  0.684

     Number of occupied Hubbard levels =    5.2341

          k = 0.0000 0.0000 0.0000 (  3893 PWs)   bands (ev):

   -72.8980 -42.3197 -41.5473 -40.9374 -11.8873 -10.5631 -10.2771 -10.0419
     0.8107   1.5057   2.2217   2.6723   3.0636   3.8831   4.1713   4.3331
     4.6361   5.4248   5.6005   5.6568   6.0753   7.0951   8.0040  10.0633
    10.3536  11.7231

          k =-0.0000 0.0010 0.1875 (  3895 PWs)   bands (ev):

   -72.8979 -42.3198 -41.5473 -40.9374 -11.6896 -10.7143 -10.3546 -10.0785
     1.0009   1.7948   1.9921   3.0650   3.0678   3.8455   4.0429   4.4472
     4.6482   4.9573   5.5511   5.5753   5.7693   7.0530   8.1044   9.7760
    10.3984  12.8350

          k = 0.0001-0.0020-0.3750 (  3896 PWs)   bands (ev):

   -72.8978 -42.3199 -41.5473 -40.9374 -11.3533 -10.9939 -10.4298 -10.1294
     1.2419   1.8406   2.5378   3.0183   3.0612   3.4943   3.8419   4.5379
     4.5636   4.8422   5.4741   5.4892   5.6246   7.0101   8.1795   9.5455
    10.4437  14.4348

          k = 0.0001 0.1194-0.0961 (  3890 PWs)   bands (ev):

   -72.8979 -42.3197 -41.5473 -40.9374 -11.7839 -10.5921 -10.4069 -10.0278
     1.0325   1.5208   2.1884   2.7832   3.1002   3.9052   4.1372   4.2774
     4.7234   5.0145   5.4855   5.6082   6.0738   7.1176   7.9999  10.1244
    10.3974  12.5125

          k = 0.0000 0.1204 0.0914 (  3904 PWs)   bands (ev):

   -72.8980 -42.3198 -41.5473 -40.9374 -11.7316 -10.7957 -10.2524 -10.0315
     0.9480   1.7987   2.0858   2.8899   3.0298   3.8181   3.8839   4.4509
     4.6639   5.2242   5.5621   5.5791   5.8466   7.0896   8.1012   9.7721
    10.3537  12.4874

          k = 0.0001 0.1174-0.4711 (  3922 PWs)   bands (ev):

   -72.8979 -42.3199 -41.5473 -40.9374 -11.3974 -11.0776 -10.3322 -10.0723
     1.2966   1.6455   2.4468   3.0284   3.1517   3.5119   3.8683   4.3563
     4.5563   5.0953   5.4412   5.4721   5.6769   7.0459   8.2012   9.5385
    10.3991  13.8316

          k = 0.0001 0.1184-0.2836 (  3907 PWs)   bands (ev):

   -72.8978 -42.3198 -41.5473 -40.9374 -11.5395 -10.7919 -10.4807 -10.0671
     1.2260   1.7868   2.2293   2.9774   3.0999   3.8257   3.8644   4.3994
     4.5247   4.9219   5.4388   5.5221   5.7716   7.0785   8.1235   9.8539
    10.4419  14.0716

          k =-0.0001-0.2388 0.1922 (  3908 PWs)   bands (ev):

   -72.8979 -42.3197 -41.5473 -40.9374 -11.6529 -10.6860 -10.4957 -10.0167
     1.0193   1.8519   2.3997   2.8199   3.1397   3.6097   3.9317   4.2158
     4.5962   5.0058   5.4777   5.5588   6.0753   7.1405   7.9933  10.1897
    10.4407  13.8113

          k =-0.0001-0.2378 0.3797 (  3904 PWs)   bands (ev):

   -72.8979 -42.3198 -41.5473 -40.9374 -11.5940 -10.8651 -10.3713 -10.0234
     1.3325   1.7567   1.9913   2.9117   3.0619   3.7927   3.9069   4.4019
     4.7552   4.9195   5.4376   5.5097   5.8052   7.1135   8.1313   9.8546
    10.3974  13.4090

          k =-0.0000-0.2409-0.1829 (  3900 PWs)   bands (ev):

   -72.8979 -42.3199 -41.5473 -40.9374 -11.4339 -11.1509 -10.2412 -10.0266
     1.1621   1.7928   2.3231   2.9974   3.0407   3.7020   3.8968   4.1180
     4.5650   5.2100   5.4615   5.5692   5.7341   7.0800   8.1707   9.5149
    10.3543  13.7339

          k = 0.2489-0.0615-0.1388 (  3913 PWs)   bands (ev):

   -72.8952 -42.3169 -41.5418 -40.9753 -11.3331 -10.5888 -10.2071 -10.0387
     1.3904   1.6587   2.1325   2.4241   2.8025   3.0212   3.8124   4.0078
     4.2746   5.0200   5.3107   5.5017   6.1190   6.9597   8.0119   9.6883
    10.0973  13.9269

          k = 0.2489-0.0605 0.0487 (  3893 PWs)   bands (ev):

   -72.8952 -42.3169 -41.5418 -40.9753 -11.4336 -10.4639 -10.2482 -10.0060
     1.4109   1.8124   2.0378   2.4482   2.8296   2.8834   3.7020   3.9532
     4.3057   5.0123   5.3835   5.5700   6.0476   7.0544   7.9413   9.7519
    10.0709  13.5829

          k = 0.2490-0.0635-0.5138 (  3920 PWs)   bands (ev):

   -72.8952 -42.3169 -41.5419 -40.9753 -11.2387 -10.5560 -10.3444 -10.0536
     1.3143   1.6672   2.2012   2.5643   2.6882   3.0082   3.9707   4.0892
     4.4085   4.9451   5.0567   5.4741   6.1603   6.9566   8.0074   9.6368
    10.0196  14.6962

          k = 0.2489-0.0625-0.3263 (  3917 PWs)   bands (ev):

   -72.8952 -42.3169 -41.5419 -40.9753 -11.0486 -10.7730 -10.2981 -10.0899
     1.3166   1.6351   2.1040   2.4482   2.7461   3.3529   3.9002   4.1910
     4.3749   4.8881   5.0119   5.4628   6.1756   6.8772   8.0745   9.7945
     9.8533  15.0869

          k = 0.2490 0.0579-0.2349 (  3919 PWs)   bands (ev):

   -72.8952 -42.3169 -41.5419 -40.9753 -11.2412 -10.5549 -10.3421 -10.0540
     1.3132   1.6681   2.2024   2.5596   2.6887   3.0061   3.9685   4.0868
     4.4119   4.9534   5.0525   5.4761   6.1607   6.9582   8.0066   9.6358
    10.0198  14.6887

          k = 0.2489 0.0589-0.0474 (  3898 PWs)   bands (ev):

   -72.8952 -42.3169 -41.5418 -40.9753 -11.4352 -10.4639 -10.2462 -10.0060
     1.4105   1.8114   2.0386   2.4466   2.8207   2.8920   3.7009   3.9498
     4.3103   5.0057   5.3943   5.5702   6.0442   7.0550   7.9412   9.7515
    10.0717  13.5788

          k = 0.2490 0.0559-0.6099 (  3912 PWs)   bands (ev):

   -72.8952 -42.3169 -41.5418 -40.9753 -11.3325 -10.5877 -10.2085 -10.0393
     1.3886   1.6612   2.1314   2.4218   2.8116   3.0159   3.8124   4.0089
     4.2782   5.0154   5.3063   5.5031   6.1217   6.9603   8.0115   9.6863
    10.0966  13.9344

          k = 0.2490 0.0569-0.4224 (  3914 PWs)   bands (ev):

   -72.8952 -42.3169 -41.5419 -40.9753 -11.0482 -10.7714 -10.2994 -10.0908
     1.3166   1.6345   2.1024   2.4480   2.7469   3.3570   3.9046   4.1884
     4.3714   4.8845   5.0152   5.4640   6.1769   6.8782   8.0727   9.7931
     9.8517  15.0912

          k = 0.2488-0.3003 0.0534 (  3925 PWs)   bands (ev):

   -72.8952 -42.3169 -41.5419 -40.9753 -11.1696 -10.6519 -10.3432 -10.0391
     1.4653   1.8207   2.1160   2.4559   2.6948   3.1197   3.6858   4.0145
     4.3907   4.9205   5.1172   5.5332   6.1463   6.9688   8.0249   9.6410
    10.1016  14.6967

          k = 0.2487-0.2993 0.2409 (  3915 PWs)   bands (ev):

   -72.8952 -42.3169 -41.5419 -40.9753 -11.3050 -10.4821 -10.3938 -10.0049
     1.3841   1.9577   2.2634   2.5089   2.6722   2.8913   3.5328   3.9160
     4.5039   4.9383   5.1371   5.5899   6.1105   7.0774   7.9317   9.6917
    10.0607  14.4759

          k = 0.2489-0.3024-0.3217 (  3912 PWs)   bands (ev):

   -72.8952 -42.3169 -41.5418 -40.9753 -11.2813 -10.6503 -10.2215 -10.0259
     1.6024   1.7785   1.9165   2.5579   2.8028   3.0604   3.5584   3.8777
     4.1562   5.0758   5.3620   5.5678   6.0996   6.9660   8.0266   9.7066
    10.1796  13.8581

          k = 0.2488-0.3014-0.1341 (  3920 PWs)   bands (ev):

   -72.8952 -42.3169 -41.5418 -40.9753 -11.0597 -10.8838 -10.1973 -10.0547
     1.5613   1.6993   1.9537   2.5600   2.7859   3.0933   3.5225   4.1657
     4.2819   4.8691   5.3280   5.5244   6.1504   6.8721   8.0885   9.8879
     9.9447  14.6165

          k = 0.2488-0.1809-0.0427 (  3913 PWs)   bands (ev):

   -72.8952 -42.3169 -41.5418 -40.9753 -11.2792 -10.6511 -10.2233 -10.0257
     1.6020   1.7795   1.9145   2.5658   2.8029   3.0521   3.5593   3.8803
     4.1582   5.0802   5.3508   5.5721   6.1008   6.9656   8.0253   9.7079
    10.1777  13.8585

          k = 0.2488-0.1799 0.1448 (  3921 PWs)   bands (ev):

   -72.8952 -42.3169 -41.5419 -40.9753 -11.3029 -10.4828 -10.3958 -10.0049
     1.3830   1.9570   2.2670   2.5134   2.6741   2.8873   3.5310   3.9175
     4.5025   4.9340   5.1402   5.5892   6.1109   7.0766   7.9318   9.6912
    10.0610  14.4844

          k = 0.2489-0.1830-0.4178 (  3924 PWs)   bands (ev):

   -72.8952 -42.3169 -41.5419 -40.9753 -11.1700 -10.6536 -10.3417 -10.0383
     1.4655   1.8232   2.1145   2.4597   2.6883   3.1246   3.6789   4.0173
     4.3898   4.9243   5.1165   5.5302   6.1439   6.9674   8.0267   9.6428
    10.1040  14.6885

          k = 0.2489-0.1819-0.2302 (  3913 PWs)   bands (ev):

   -72.8952 -42.3169 -41.5418 -40.9753 -11.0597 -10.8854 -10.1959 -10.0543
     1.5623   1.6972   1.9569   2.5622   2.7835   3.0929   3.5170   4.1689
     4.2809   4.8669   5.3351   5.5212   6.1485   6.8709   8.0899   9.8883
     9.9474  14.6147

          k =-0.4978 0.1230 0.2776 (  3924 PWs)   bands (ev):

   -72.8929 -42.3140 -41.5364 -41.0129 -10.6687 -10.4333 -10.2524 -10.1275
     0.6978   1.2128   1.8465   2.2698   2.5896   3.5210   3.8763   4.2591
     4.5209   4.8104   4.8223   5.3136   5.9565   6.7901   7.9144   9.9827
    10.0990  15.3144

          k =-0.4978 0.1240 0.4651 (  3919 PWs)   bands (ev):

   -72.8929 -42.3140 -41.5364 -41.0129 -10.7159 -10.4487 -10.2396 -10.0843
     0.9081   1.2463   1.9665   2.3683   2.5981   3.4394   3.6763   4.2146
     4.3829   4.5448   4.9231   5.1615   5.9530   6.9632   7.8978   9.7932
    10.0575  15.8422

          k =-0.4977 0.1210-0.0974 (  3936 PWs)   bands (ev):

   -72.8929 -42.3140 -41.5364 -41.0129 -10.7555 -10.4672 -10.2242 -10.0480
     1.0908   1.3599   2.2081   2.4282   2.6637   3.0827   3.4074   4.1575
     4.3252   4.5135   4.8810   5.0527   5.9441   7.0944   7.8859   9.5757
    10.0719  16.0520

          k =-0.4977 0.2424 0.1815 (  3933 PWs)   bands (ev):

   -72.8929 -42.3140 -41.5364 -41.0129 -10.6688 -10.4330 -10.2519 -10.1281
     0.7598   1.1201   1.8509   2.2711   2.5629   3.6845   3.8493   4.1987
     4.5119   4.7857   4.8393   5.3062   5.9558   6.7936   7.9072  10.0009
    10.0701  15.6528

          k =-0.4978 0.2434 0.3690 (  3926 PWs)   bands (ev):

   -72.8929 -42.3140 -41.5364 -41.0129 -10.7167 -10.4523 -10.2354 -10.0839
     0.8980   1.2775   1.9669   2.2238   2.7973   3.3470   3.6777   4.1926
     4.3972   4.5444   4.9440   5.1633   5.9511   6.9688   7.8974   9.7778
    10.0732  15.6269

          k =-0.4977 0.2404-0.1935 (  3915 PWs)   bands (ev):

   -72.8929 -42.3140 -41.5364 -41.0129 -10.7582 -10.4632 -10.2289 -10.0443
     1.1086   1.3288   2.1669   2.5190   2.6981   2.9987   3.4637   4.1334
     4.2640   4.5069   4.8644   5.1106   5.9476   7.1012   7.8856   9.5837
    10.0629  16.0117

          k =-0.4977 0.2414-0.0060 (  3927 PWs)   bands (ev):

   -72.8929 -42.3140 -41.5364 -41.0129 -10.7155 -10.4500 -10.2377 -10.0851
     0.8966   1.2780   1.9614   2.2236   2.7961   3.3494   3.6787   4.2001
     4.4036   4.5418   4.9447   5.1598   5.9519   6.9667   7.8954   9.7804
    10.0725  15.6162

          k =-0.4979-0.1158 0.4698 (  3926 PWs)   bands (ev):

   -72.8929 -42.3140 -41.5364 -41.0129 -10.6692 -10.4314 -10.2540 -10.1272
     0.7002   1.2123   1.8426   2.2611   2.5792   3.5226   3.8902   4.2695
     4.5287   4.8063   4.8238   5.3106   5.9572   6.7896   7.9101   9.9797
    10.0994  15.3053

          k =-0.4979-0.1148 0.6573 (  3915 PWs)   bands (ev):

   -72.8929 -42.3140 -41.5364 -41.0129 -10.7174 -10.4493 -10.2388 -10.0826
     0.9127   1.2446   1.9644   2.3645   2.5900   3.4398   3.6785   4.2212
     4.3810   4.5502   4.9235   5.1618   5.9529   6.9648   7.8960   9.7898
    10.0580  15.8568

          k =-0.4978-0.1179 0.0947 (  3930 PWs)   bands (ev):

   -72.8929 -42.3140 -41.5364 -41.0129 -10.7579 -10.4697 -10.2214 -10.0454
     1.0988   1.3586   2.2056   2.4235   2.6577   3.0819   3.4100   4.1541
     4.3255   4.5148   4.8864   5.0529   5.9432   7.0980   7.8856   9.5685
    10.0730  16.0561

     the Fermi energy is     7.0275 ev

!    total energy              =    -520.62013389 Ry
     total all-electron energy =     -3720.873392 Ry
     estimated scf accuracy    <          8.3E-10 Ry
     smearing contrib. (-TS)   =      -0.00511436 Ry
     internal energy E=F+TS    =    -520.61501953 Ry

     The total energy is F=E-TS. E is the sum of the following terms:
     one-electron contribution =    -240.38749205 Ry
     hartree contribution      =     145.26071891 Ry
     xc contribution           =     -61.24954421 Ry
     ewald contribution        =    -185.74212157 Ry
     Hubbard energy            =       0.24506333 Ry
     one-center paw contrib.   =    -178.74164393 Ry

     convergence has been achieved in  16 iterations
     force_hub    :     75.25s CPU     10.43s WALL (       5 calls)
     dndtau       :     66.02s CPU      9.21s WALL (    3780 calls)
     dprojdtau    :      9.08s CPU      1.42s WALL (    3780 calls)
     calc_doverla :     37.19s CPU      4.94s WALL (    3780 calls)
     matel_dSdtau :     48.66s CPU      6.62s WALL (    7560 calls)

     Forces acting on atoms (cartesian axes, Ry/au):

     atom    1 type  1   force =     0.00131723   -0.00030953   -0.00557210
     atom    2 type  1   force =    -0.00020442    0.00347286    0.00084729
     atom    3 type  3   force =    -0.00001831    0.00169702   -0.00145568
     atom    4 type  2   force =    -0.00058994   -0.00102118    0.00357485
     atom    5 type  2   force =     0.00027470    0.00054105   -0.00290266
     atom    6 type  2   force =    -0.00007382   -0.00653166    0.00045767
     atom    7 type  2   force =    -0.00070544    0.00215144    0.00505063

     Total force =     0.012132     Total SCF correction =     0.000055


     Computing stress (Cartesian axis) and pressure

     stres_hub    :    211.97s CPU     26.29s WALL (       5 calls)
     dprojdepsilo :    171.61s CPU     21.35s WALL (    1620 calls)
     dprojdeps1   :     18.12s CPU      2.37s WALL (    1620 calls)
     dprojdeps2   :     95.69s CPU     11.96s WALL (    1620 calls)
     dprojdeps3   :     57.73s CPU      7.01s WALL (    1620 calls)
          total   stress  (Ry/bohr**3)                   (kbar)     P=        0.09
  -0.00004649  -0.00000459   0.00000418           -6.84       -0.68        0.62
  -0.00000459   0.00002154   0.00002369           -0.68        3.17        3.49
   0.00000418   0.00002369   0.00002678            0.62        3.49        3.94

     Energy error            =      8.5E-04 Ry
     Gradient error          =      6.5E-03 Ry/Bohr
     Cell gradient error     =      6.8E+00 kbar

     number of scf cycles    =   5
     number of bfgs steps    =   4

     enthalpy           old  =    -520.6192868642 Ry
     enthalpy           new  =    -520.6201338929 Ry

     CASE: enthalpy          _new < enthalpy          _old

     new trust radius        =       0.0295847016 bohr
     new conv_thr            =       0.0000000653 Ry

     new unit-cell volume =    487.87500 a.u.^3 (    72.29562 Ang^3 )
     density =      3.84827 g/cm^3

CELL_PARAMETERS (angstrom)
   2.969986982  -0.001480505   0.001518295
   1.502724124   6.173104451  -0.026010569
   2.969357613   3.166306846   3.930544667

ATOMIC_POSITIONS (angstrom)
Mg               3.4486013303        4.7881424710        1.4585746500
Mg               0.4786511082        1.1088819842        0.3316083222
Mn               4.9344979654        2.3254452676        2.5308391174
O                3.4669984960        6.8891268094        1.7881854548
O                4.9336920966        4.3041355176        2.8665980316
O                3.4505739410        2.7969548488        1.3593927481
O                4.9503330096        8.3770876776        3.8665903469



     Writing config-only to output data dir .\out\\qgan.save\ :
     XML data file
     NEW-OLD atomic charge density approx. for the potential
     New effective cutoffs (rho, wfc):  496.20   62.09

     Check: negative core charge=   -0.000002

     Atomic wfc used for Hubbard projectors are orthogonalized


     total cpu time spent up to now is      278.2 secs

     Self-consistent Calculation

     iteration #  1     ecut=    60.00 Ry     beta= 0.70
     Davidson diagonalization with overlap
     ethr =  1.00E-06,  avg # of iterations =  9.1

     =================== HUBBARD OCCUPATIONS ===================
     ------------------------ ATOM    3 ------------------------
     Tr[ns(  3)] =   5.24213
     eigenvalues:
       0.220  0.312  0.399  0.715  0.975
     eigenvectors (columns):
      -0.536 -0.000  0.201  0.002 -0.820
       0.002 -0.964 -0.003  0.266 -0.001
       0.802  0.000  0.424 -0.002 -0.421
      -0.262 -0.003  0.883  0.001  0.389
      -0.003 -0.266 -0.000 -0.964 -0.001
     occupation matrix ns (before diag.):
       0.735  0.001  0.276 -0.209 -0.001
       0.001  0.340 -0.000 -0.000 -0.104
       0.276 -0.000  0.386 -0.057  0.001
      -0.209 -0.000 -0.057  0.474 -0.001
      -0.001 -0.104  0.001 -0.001  0.686

     Number of occupied Hubbard levels =    5.2421

     total cpu time spent up to now is      283.4 secs

     total energy              =    -520.62023287 Ry
     estimated scf accuracy    <       0.00049582 Ry

     iteration #  2     ecut=    60.00 Ry     beta= 0.70
     Davidson diagonalization with overlap
     ethr =  1.15E-06,  avg # of iterations =  4.5

     total cpu time spent up to now is      286.3 secs

     total energy              =    -520.61986328 Ry
     estimated scf accuracy    <       0.00484910 Ry

     iteration #  3     ecut=    60.00 Ry     beta= 0.70
     Davidson diagonalization with overlap
     ethr =  1.15E-06,  avg # of iterations =  3.7

     total cpu time spent up to now is      288.7 secs

     total energy              =    -520.62034618 Ry
     estimated scf accuracy    <       0.00058474 Ry

     iteration #  4     ecut=    60.00 Ry     beta= 0.70
     Davidson diagonalization with overlap
     ethr =  1.15E-06,  avg # of iterations =  1.9

     total cpu time spent up to now is      290.9 secs

     total energy              =    -520.62044953 Ry
     estimated scf accuracy    <       0.00005668 Ry

     iteration #  5     ecut=    60.00 Ry     beta= 0.70
     Davidson diagonalization with overlap
     ethr =  1.32E-07,  avg # of iterations =  5.2

     total cpu time spent up to now is      293.8 secs

     total energy              =    -520.62048920 Ry
     estimated scf accuracy    <       0.00004982 Ry

     iteration #  6     ecut=    60.00 Ry     beta= 0.70
     Davidson diagonalization with overlap
     ethr =  1.16E-07,  avg # of iterations =  1.2

     total cpu time spent up to now is      295.9 secs

     total energy              =    -520.62048935 Ry
     estimated scf accuracy    <       0.00001972 Ry

     iteration #  7     ecut=    60.00 Ry     beta= 0.70
     Davidson diagonalization with overlap
     ethr =  4.59E-08,  avg # of iterations =  1.9

     total cpu time spent up to now is      298.2 secs

     total energy              =    -520.62048923 Ry
     estimated scf accuracy    <       0.00000669 Ry

     iteration #  8     ecut=    60.00 Ry     beta= 0.70
     Davidson diagonalization with overlap
     ethr =  1.56E-08,  avg # of iterations =  2.1

     total cpu time spent up to now is      300.6 secs

     total energy              =    -520.62048999 Ry
     estimated scf accuracy    <       0.00000079 Ry

     iteration #  9     ecut=    60.00 Ry     beta= 0.70
     Davidson diagonalization with overlap
     ethr =  1.84E-09,  avg # of iterations = 10.7

     total cpu time spent up to now is      304.6 secs

     total energy              =    -520.62049119 Ry
     estimated scf accuracy    <       0.00000035 Ry

     iteration # 10     ecut=    60.00 Ry     beta= 0.70
     Davidson diagonalization with overlap
     ethr =  8.16E-10,  avg # of iterations =  4.4

     total cpu time spent up to now is      307.2 secs

     total energy              =    -520.62049125 Ry
     estimated scf accuracy    <       0.00000017 Ry

     iteration # 11     ecut=    60.00 Ry     beta= 0.70
     Davidson diagonalization with overlap
     c_bands:  1 eigenvalues not converged
     ethr =  3.94E-10,  avg # of iterations =  8.7

     total cpu time spent up to now is      310.7 secs

     End of self-consistent calculation

     =================== HUBBARD OCCUPATIONS ===================
     ------------------------ ATOM    3 ------------------------
     Tr[ns(  3)] =   5.23571
     eigenvalues:
       0.219  0.312  0.399  0.714  0.975
     eigenvectors (columns):
      -0.536  0.000  0.202  0.002 -0.820
       0.002 -0.964 -0.003  0.266 -0.001
       0.803  0.000  0.423 -0.002 -0.421
      -0.262 -0.003  0.883  0.001  0.389
      -0.003 -0.266 -0.001 -0.964 -0.001
     occupation matrix ns (before diag.):
       0.734  0.001  0.276 -0.209 -0.000
       0.001  0.340 -0.000 -0.000 -0.103
       0.276 -0.000  0.385 -0.057  0.001
      -0.209 -0.000 -0.057  0.473 -0.001
      -0.000 -0.103  0.001 -0.001  0.685

     Number of occupied Hubbard levels =    5.2357

          k = 0.0000 0.0000 0.0000 (  3893 PWs)   bands (ev):

   -72.8985 -42.3208 -41.5478 -40.9379 -11.8827 -10.5520 -10.2846 -10.0572
     0.8162   1.5042   2.2341   2.6810   3.0630   3.8940   4.1426   4.3414
     4.6314   5.4125   5.6023   5.6418   6.0584   7.1088   7.9961  10.0559
    10.3362  11.7171

          k =-0.0001 0.0008 0.1876 (  3895 PWs)   bands (ev):

   -72.8984 -42.3208 -41.5479 -40.9379 -11.6849 -10.7067 -10.3595 -10.0927
     1.0093   1.7967   1.9904   3.0648   3.0738   3.8560   4.0360   4.4547
     4.6298   4.9488   5.5519   5.5631   5.7551   7.0662   8.0960   9.7680
    10.3796  12.8312

          k = 0.0002-0.0016-0.3752 (  3896 PWs)   bands (ev):

   -72.8983 -42.3209 -41.5479 -40.9379 -11.3489 -10.9871 -10.4336 -10.1432
     1.2613   1.8319   2.5277   3.0154   3.0607   3.4945   3.8515   4.5441
     4.5571   4.8389   5.4664   5.4799   5.6153   7.0228   8.1738   9.5331
    10.4236  14.4323

          k = 0.0001 0.1194-0.0962 (  3890 PWs)   bands (ev):

   -72.8985 -42.3208 -41.5479 -40.9379 -11.7783 -10.5811 -10.4173 -10.0412
     1.0376   1.5210   2.1939   2.7902   3.0991   3.9152   4.1287   4.2873
     4.7054   5.0115   5.4759   5.5937   6.0610   7.1316   7.9900  10.1176
    10.3784  12.5079

          k = 0.0000 0.1202 0.0913 (  3904 PWs)   bands (ev):

   -72.8985 -42.3209 -41.5479 -40.9379 -11.7287 -10.7878 -10.2564 -10.0450
     0.9502   1.8022   2.0958   2.8915   3.0296   3.8134   3.8948   4.4588
     4.6467   5.2115   5.5478   5.5755   5.8309   7.1028   8.0929   9.7675
    10.3365  12.4822

          k = 0.0003 0.1177-0.4714 (  3922 PWs)   bands (ev):

   -72.8984 -42.3209 -41.5479 -40.9379 -11.3980 -11.0667 -10.3364 -10.0847
     1.3041   1.6507   2.4394   3.0282   3.1523   3.5132   3.8785   4.3466
     4.5637   5.0859   5.4312   5.4603   5.6653   7.0586   8.1933   9.5325
    10.3805  13.8348

          k = 0.0002 0.1186-0.2838 (  3907 PWs)   bands (ev):

   -72.8984 -42.3208 -41.5479 -40.9379 -11.5327 -10.7873 -10.4862 -10.0796
     1.2334   1.7901   2.2280   2.9724   3.0988   3.8288   3.8741   4.4083
     4.5156   4.9102   5.4317   5.5103   5.7611   7.0920   8.1149   9.8454
    10.4216  14.0714

          k =-0.0002-0.2387 0.1925 (  3908 PWs)   bands (ev):

   -72.8984 -42.3208 -41.5479 -40.9379 -11.6452 -10.6827 -10.5016 -10.0287
     1.0198   1.8609   2.4006   2.8242   3.1380   3.6042   3.9400   4.2280
     4.5872   4.9948   5.4673   5.5447   6.0646   7.1548   7.9820  10.1837
    10.4202  13.8132

          k =-0.0003-0.2379 0.3801 (  3904 PWs)   bands (ev):

   -72.8984 -42.3208 -41.5479 -40.9379 -11.5902 -10.8579 -10.3771 -10.0352
     1.3350   1.7566   1.9996   2.9120   3.0612   3.7968   3.9171   4.4112
     4.7448   4.9002   5.4263   5.4957   5.7961   7.1269   8.1222   9.8495
    10.3787  13.4061

          k =-0.0000-0.2404-0.1827 (  3900 PWs)   bands (ev):

   -72.8985 -42.3209 -41.5479 -40.9379 -11.4389 -11.1368 -10.2443 -10.0388
     1.1574   1.8151   2.3186   2.9976   3.0367   3.7060   3.9075   4.1102
     4.5732   5.1941   5.4473   5.5595   5.7163   7.0928   8.1617   9.5140
    10.3373  13.7429

          k = 0.2491-0.0612-0.1388 (  3913 PWs)   bands (ev):

   -72.8957 -42.3179 -41.5424 -40.9760 -11.3273 -10.5824 -10.2132 -10.0484
     1.3985   1.6652   2.1313   2.4295   2.7906   3.0164   3.8156   4.0080
     4.2720   5.0185   5.2949   5.4964   6.1074   6.9625   8.0091   9.6776
    10.0869  13.9264

          k = 0.2490-0.0604 0.0487 (  3893 PWs)   bands (ev):

   -72.8957 -42.3179 -41.5424 -40.9760 -11.4271 -10.4555 -10.2569 -10.0160
     1.4178   1.8149   2.0416   2.4494   2.8230   2.8774   3.7046   3.9554
     4.3001   5.0154   5.3765   5.5553   6.0355   7.0547   7.9389   9.7423
    10.0607  13.5789

          k = 0.2492-0.0628-0.5140 (  3920 PWs)   bands (ev):

   -72.8957 -42.3179 -41.5425 -40.9760 -11.2307 -10.5521 -10.3485 -10.0649
     1.3194   1.6752   2.2017   2.5609   2.6772   3.0091   3.9752   4.1028
     4.4005   4.9258   5.0551   5.4655   6.1477   6.9568   8.0046   9.6284
    10.0134  14.6972

          k = 0.2491-0.0620-0.3264 (  3917 PWs)   bands (ev):

   -72.8957 -42.3179 -41.5425 -40.9760 -11.0407 -10.7693 -10.3015 -10.1014
     1.3266   1.6422   2.0998   2.4465   2.7335   3.3595   3.9033   4.1933
     4.3777   4.8698   5.0033   5.4536   6.1656   6.8785   8.0715   9.7873
     9.8454  15.0949

          k = 0.2492 0.0582-0.2351 (  3919 PWs)   bands (ev):

   -72.8957 -42.3179 -41.5425 -40.9760 -11.2328 -10.5512 -10.3467 -10.0652
     1.3185   1.6764   2.2028   2.5570   2.6782   3.0069   3.9729   4.1007
     4.4032   4.9317   5.0521   5.4673   6.1482   6.9584   8.0037   9.6287
    10.0127  14.6914

          k = 0.2491 0.0590-0.0475 (  3898 PWs)   bands (ev):

   -72.8957 -42.3179 -41.5424 -40.9760 -11.4284 -10.4554 -10.2553 -10.0160
     1.4174   1.8143   2.0421   2.4481   2.8173   2.8832   3.7036   3.9529
     4.3036   5.0101   5.3844   5.5558   6.0329   7.0553   7.9389   9.7420
    10.0614  13.5757

          k = 0.2494 0.0565-0.6102 (  3912 PWs)   bands (ev):

   -72.8957 -42.3179 -41.5424 -40.9760 -11.3268 -10.5815 -10.2143 -10.0490
     1.3970   1.6669   2.1305   2.4273   2.7976   3.0127   3.8158   4.0096
     4.2745   5.0146   5.2919   5.4977   6.1094   6.9629   8.0090   9.6749
    10.0871  13.9322

          k = 0.2493 0.0573-0.4227 (  3914 PWs)   bands (ev):

   -72.8957 -42.3179 -41.5425 -40.9760 -11.0404 -10.7682 -10.3024 -10.1022
     1.3265   1.6416   2.0987   2.4463   2.7340   3.3627   3.9070   4.1917
     4.3740   4.8673   5.0059   5.4547   6.1666   6.8793   8.0701   9.7868
     9.8434  15.0981

          k = 0.2488-0.3000 0.0537 (  3925 PWs)   bands (ev):

   -72.8957 -42.3179 -41.5425 -40.9760 -11.1611 -10.6492 -10.3475 -10.0495
     1.4670   1.8332   2.1139   2.4604   2.6814   3.1204   3.6930   4.0190
     4.3840   4.9005   5.1140   5.5241   6.1366   6.9688   8.0206   9.6374
    10.0946  14.7013

          k = 0.2487-0.2991 0.2412 (  3915 PWs)   bands (ev):

   -72.8957 -42.3179 -41.5425 -40.9760 -11.2960 -10.4761 -10.4019 -10.0157
     1.3842   1.9696   2.2627   2.5058   2.6668   2.8940   3.5411   3.9186
     4.4932   4.9151   5.1455   5.5799   6.0989   7.0760   7.9274   9.6859
    10.0555  14.4790

          k = 0.2490-0.3016-0.3215 (  3912 PWs)   bands (ev):

   -72.8957 -42.3179 -41.5424 -40.9760 -11.2758 -10.6439 -10.2274 -10.0354
     1.6054   1.7803   1.9280   2.5621   2.7934   3.0564   3.5570   3.8804
     4.1478   5.0726   5.3495   5.5600   6.0915   6.9682   8.0226   9.6984
    10.1700  13.8570

          k = 0.2489-0.3008-0.1339 (  3920 PWs)   bands (ev):

   -72.8957 -42.3180 -41.5424 -40.9760 -11.0593 -10.8737 -10.2018 -10.0639
     1.5638   1.7073   1.9652   2.5623   2.7680   3.0975   3.5135   4.1651
     4.2829   4.8583   5.3138   5.5235   6.1408   6.8756   8.0848   9.8827
     9.9321  14.6228

          k = 0.2489-0.1806-0.0426 (  3913 PWs)   bands (ev):

   -72.8957 -42.3179 -41.5424 -40.9760 -11.2741 -10.6446 -10.2289 -10.0352
     1.6056   1.7813   1.9261   2.5688   2.7929   3.0496   3.5576   3.8819
     4.1497   5.0763   5.3410   5.5631   6.0925   6.9679   8.0214   9.7004
    10.1677  13.8574

          k = 0.2488-0.1798 0.1450 (  3921 PWs)   bands (ev):

   -72.8957 -42.3179 -41.5425 -40.9760 -11.2942 -10.4769 -10.4033 -10.0157
     1.3835   1.9688   2.2657   2.5097   2.6673   2.8911   3.5397   3.9198
     4.4921   4.9121   5.1483   5.5791   6.0992   7.0753   7.9275   9.6854
    10.0557  14.4858

          k = 0.2491-0.1822-0.4177 (  3924 PWs)   bands (ev):

   -72.8957 -42.3179 -41.5425 -40.9760 -11.1615 -10.6504 -10.3463 -10.0489
     1.4671   1.8349   2.1127   2.4634   2.6764   3.1247   3.6875   4.0219
     4.3833   4.9033   5.1132   5.5217   6.1345   6.9675   8.0222   9.6378
    10.0973  14.6948

          k = 0.2490-0.1814-0.2302 (  3913 PWs)   bands (ev):

   -72.8957 -42.3180 -41.5424 -40.9760 -11.0594 -10.8749 -10.2007 -10.0636
     1.5647   1.7057   1.9675   2.5642   2.7665   3.0970   3.5090   4.1673
     4.2825   4.8564   5.3190   5.5212   6.1392   6.8746   8.0859   9.8824
     9.9350  14.6217

          k =-0.4981 0.1224 0.2777 (  3924 PWs)   bands (ev):

   -72.8934 -42.3150 -41.5370 -41.0137 -10.6451 -10.4419 -10.2685 -10.1265
     0.7036   1.2094   1.8446   2.2737   2.5921   3.5084   3.8834   4.2535
     4.5271   4.7820   4.8090   5.3227   5.9564   6.7844   7.9137   9.9767
    10.0890  15.3086

          k =-0.4982 0.1232 0.4653 (  3919 PWs)   bands (ev):

   -72.8934 -42.3150 -41.5370 -41.0137 -10.6930 -10.4573 -10.2553 -10.0829
     0.9123   1.2366   1.9701   2.3728   2.6013   3.4313   3.6782   4.2138
     4.3835   4.5255   4.9142   5.1612   5.9527   6.9568   7.8983   9.7852
    10.0508  15.8419

          k =-0.4979 0.1208-0.0975 (  3936 PWs)   bands (ev):

   -72.8934 -42.3150 -41.5370 -41.0137 -10.7326 -10.4764 -10.2395 -10.0463
     1.0863   1.3529   2.2127   2.4350   2.6638   3.0903   3.4037   4.1466
     4.3307   4.4938   4.8863   5.0408   5.9435   7.0876   7.8872   9.5684
    10.0649  16.0758

          k =-0.4980 0.2418 0.1814 (  3933 PWs)   bands (ev):

   -72.8934 -42.3150 -41.5370 -41.0137 -10.6451 -10.4418 -10.2681 -10.1269
     0.7675   1.1140   1.8512   2.2701   2.5720   3.6661   3.8574   4.1902
     4.5201   4.7649   4.8206   5.3155   5.9554   6.7878   7.9070   9.9923
    10.0629  15.6355

          k =-0.4981 0.2426 0.3690 (  3926 PWs)   bands (ev):

   -72.8934 -42.3150 -41.5370 -41.0137 -10.6934 -10.4609 -10.2513 -10.0826
     0.8995   1.2715   1.9674   2.2291   2.8021   3.3429   3.6767   4.1918
     4.3968   4.5250   4.9319   5.1655   5.9508   6.9625   7.8978   9.7717
    10.0650  15.6273

          k =-0.4978 0.2402-0.1937 (  3915 PWs)   bands (ev):

   -72.8934 -42.3150 -41.5370 -41.0137 -10.7354 -10.4717 -10.2445 -10.0431
     1.1035   1.3207   2.1765   2.5243   2.6997   2.9969   3.4684   4.1255
     4.2626   4.4875   4.8687   5.1007   5.9472   7.0940   7.8871   9.5767
    10.0565  16.0291

          k =-0.4979 0.2410-0.0061 (  3927 PWs)   bands (ev):

   -72.8934 -42.3150 -41.5370 -41.0137 -10.6924 -10.4591 -10.2533 -10.0836
     0.8983   1.2720   1.9630   2.2288   2.8010   3.3448   3.6777   4.1979
     4.4016   4.5233   4.9328   5.1627   5.9514   6.9608   7.8964   9.7731
    10.0649  15.6187

          k =-0.4983-0.1163 0.4702 (  3926 PWs)   bands (ev):

   -72.8934 -42.3150 -41.5370 -41.0137 -10.6455 -10.4403 -10.2698 -10.1261
     0.7053   1.2092   1.8414   2.2664   2.5840   3.5098   3.8942   4.2619
     4.5336   4.7793   4.8098   5.3204   5.9569   6.7841   7.9104   9.9734
    10.0902  15.3012

          k =-0.4984-0.1155 0.6577 (  3915 PWs)   bands (ev):

   -72.8934 -42.3150 -41.5370 -41.0137 -10.6942 -10.4578 -10.2547 -10.0814
     0.9157   1.2354   1.9688   2.3698   2.5946   3.4314   3.6798   4.2188
     4.3818   4.5302   4.9146   5.1614   5.9526   6.9583   7.8968   9.7825
    10.0512  15.8531

          k =-0.4981-0.1179 0.0950 (  3930 PWs)   bands (ev):

   -72.8934 -42.3150 -41.5370 -41.0137 -10.7346 -10.4785 -10.2372 -10.0442
     1.0921   1.3524   2.2112   2.4310   2.6597   3.0894   3.4054   4.1437
     4.3314   4.4942   4.8910   5.0405   5.9427   7.0907   7.8869   9.5632
    10.0654  16.0778

     the Fermi energy is     7.0295 ev

!    total energy              =    -520.62049139 Ry
     total all-electron energy =     -3720.873750 Ry
     estimated scf accuracy    <          9.3E-09 Ry
     smearing contrib. (-TS)   =      -0.00503288 Ry
     internal energy E=F+TS    =    -520.61545850 Ry

     The total energy is F=E-TS. E is the sum of the following terms:
     one-electron contribution =    -240.15795175 Ry
     hartree contribution      =     145.14140250 Ry
     xc contribution           =     -61.24660917 Ry
     ewald contribution        =    -185.85600020 Ry
     Hubbard energy            =       0.24480564 Ry
     one-center paw contrib.   =    -178.74110553 Ry

     convergence has been achieved in  11 iterations
     force_hub    :     91.25s CPU     12.48s WALL (       6 calls)
     dndtau       :     79.69s CPU     11.03s WALL (    4536 calls)
     dprojdtau    :     10.94s CPU      1.70s WALL (    4536 calls)
     calc_doverla :     43.52s CPU      5.91s WALL (    4536 calls)
     matel_dSdtau :     58.94s CPU      7.97s WALL (    9072 calls)

     Forces acting on atoms (cartesian axes, Ry/au):

     atom    1 type  1   force =     0.00105868    0.00214606   -0.00369586
     atom    2 type  1   force =     0.00001716    0.00067844    0.00439985
     atom    3 type  3   force =    -0.00011452   -0.00094428   -0.00287462
     atom    4 type  2   force =    -0.00044191    0.00103372    0.00272428
     atom    5 type  2   force =     0.00017302   -0.00086642   -0.00428634
     atom    6 type  2   force =    -0.00001178   -0.00358443    0.00113937
     atom    7 type  2   force =    -0.00068065    0.00153691    0.00259331

     Total force =     0.009995     Total SCF correction =     0.000068


     Computing stress (Cartesian axis) and pressure

     stres_hub    :    253.25s CPU     31.48s WALL (       6 calls)
     dprojdepsilo :    205.36s CPU     25.56s WALL (    1944 calls)
     dprojdeps1   :     21.78s CPU      2.84s WALL (    1944 calls)
     dprojdeps2   :    115.70s CPU     14.31s WALL (    1944 calls)
     dprojdeps3   :     67.81s CPU      8.40s WALL (    1944 calls)
          total   stress  (Ry/bohr**3)                   (kbar)     P=       -1.20
  -0.00004670  -0.00000384   0.00000391           -6.87       -0.57        0.57
  -0.00000384  -0.00000119   0.00001186           -0.57       -0.18        1.74
   0.00000391   0.00001186   0.00002339            0.57        1.74        3.44

     Energy error            =      3.6E-04 Ry
     Gradient error          =      4.4E-03 Ry/Bohr
     Cell gradient error     =      6.9E+00 kbar

     number of scf cycles    =   6
     number of bfgs steps    =   5

     enthalpy           old  =    -520.6201338929 Ry
     enthalpy           new  =    -520.6204913855 Ry

     CASE: enthalpy          _new < enthalpy          _old

     new trust radius        =       0.0178512039 bohr
     new conv_thr            =       0.0000000357 Ry

     new unit-cell volume =    487.91760 a.u.^3 (    72.30193 Ang^3 )
     density =      3.84794 g/cm^3

CELL_PARAMETERS (angstrom)
   2.965891698  -0.002231100   0.002233133
   1.499041266   6.177850584  -0.019943289
   2.965419345   3.171881217   3.936689102

ATOMIC_POSITIONS (angstrom)
Mg               3.4451363671        4.7889420468        1.4563365417
Mg               0.4774248697        1.1150401898        0.3297587008
Mn               4.9274061869        2.3273116098        2.5362366738
O                3.4597878207        6.8962506013        1.8041934240
O                4.9270084784        4.3095038456        2.8695919699
O                3.4455360661        2.7942575069        1.3641436616
O                4.9412462100        8.3908114961        3.8850749205



     Writing config-only to output data dir .\out\\qgan.save\ :
     XML data file
     NEW-OLD atomic charge density approx. for the potential
     New effective cutoffs (rho, wfc):  494.95   61.92

     Check: negative core charge=   -0.000002

     Atomic wfc used for Hubbard projectors are orthogonalized


     total cpu time spent up to now is      320.9 secs

     Self-consistent Calculation

     iteration #  1     ecut=    60.00 Ry     beta= 0.70
     Davidson diagonalization with overlap
     ethr =  1.00E-06,  avg # of iterations = 10.1

     =================== HUBBARD OCCUPATIONS ===================
     ------------------------ ATOM    3 ------------------------
     Tr[ns(  3)] =   5.23917
     eigenvalues:
       0.220  0.311  0.399  0.714  0.976
     eigenvectors (columns):
       0.537  0.000 -0.203  0.002 -0.819
      -0.002 -0.965  0.002  0.264 -0.001
      -0.802  0.000 -0.423 -0.002 -0.421
       0.261 -0.003 -0.883  0.000  0.389
       0.002 -0.264  0.001 -0.965 -0.001
     occupation matrix ns (before diag.):
       0.734  0.001  0.276 -0.209 -0.000
       0.001  0.339 -0.000 -0.000 -0.103
       0.276 -0.000  0.386 -0.057  0.001
      -0.209 -0.000 -0.057  0.474 -0.001
      -0.000 -0.103  0.001 -0.001  0.686

     Number of occupied Hubbard levels =    5.2392

     total cpu time spent up to now is      326.3 secs

     total energy              =    -520.62057589 Ry
     estimated scf accuracy    <       0.00015927 Ry

     iteration #  2     ecut=    60.00 Ry     beta= 0.70
     Davidson diagonalization with overlap
     ethr =  3.70E-07,  avg # of iterations =  4.1

     total cpu time spent up to now is      329.0 secs

     total energy              =    -520.62047675 Ry
     estimated scf accuracy    <       0.00124954 Ry

     iteration #  3     ecut=    60.00 Ry     beta= 0.70
     Davidson diagonalization with overlap
     ethr =  3.70E-07,  avg # of iterations =  2.3

     total cpu time spent up to now is      331.3 secs

     total energy              =    -520.62060411 Ry
     estimated scf accuracy    <       0.00020238 Ry

     iteration #  4     ecut=    60.00 Ry     beta= 0.70
     Davidson diagonalization with overlap
     ethr =  3.70E-07,  avg # of iterations =  2.0

     total cpu time spent up to now is      333.5 secs

     total energy              =    -520.62064116 Ry
     estimated scf accuracy    <       0.00003042 Ry

     iteration #  5     ecut=    60.00 Ry     beta= 0.70
     Davidson diagonalization with overlap
     ethr =  7.07E-08,  avg # of iterations =  4.6

     total cpu time spent up to now is      336.2 secs

     total energy              =    -520.62065514 Ry
     estimated scf accuracy    <       0.00001672 Ry

     iteration #  6     ecut=    60.00 Ry     beta= 0.70
     Davidson diagonalization with overlap
     ethr =  3.89E-08,  avg # of iterations =  1.4

     total cpu time spent up to now is      338.3 secs

     total energy              =    -520.62065540 Ry
     estimated scf accuracy    <       0.00000676 Ry

     iteration #  7     ecut=    60.00 Ry     beta= 0.70
     Davidson diagonalization with overlap
     ethr =  1.57E-08,  avg # of iterations =  1.9

     total cpu time spent up to now is      340.5 secs

     total energy              =    -520.62065539 Ry
     estimated scf accuracy    <       0.00000214 Ry

     iteration #  8     ecut=    60.00 Ry     beta= 0.70
     Davidson diagonalization with overlap
     ethr =  4.99E-09,  avg # of iterations =  3.6

     total cpu time spent up to now is      343.0 secs

     total energy              =    -520.62065600 Ry
     estimated scf accuracy    <       0.00000006 Ry

     iteration #  9     ecut=    60.00 Ry     beta= 0.70
     Davidson diagonalization with overlap
     c_bands:  2 eigenvalues not converged
     c_bands:  2 eigenvalues not converged
     c_bands:  5 eigenvalues not converged
     c_bands:  5 eigenvalues not converged
     c_bands:  3 eigenvalues not converged
     c_bands:  2 eigenvalues not converged
     c_bands:  5 eigenvalues not converged
     c_bands:  4 eigenvalues not converged
     c_bands:  1 eigenvalues not converged
     c_bands:  2 eigenvalues not converged
     c_bands:  1 eigenvalues not converged
     c_bands:  3 eigenvalues not converged
     c_bands:  4 eigenvalues not converged
     c_bands:  2 eigenvalues not converged
     c_bands:  3 eigenvalues not converged
     c_bands:  2 eigenvalues not converged
     c_bands:  1 eigenvalues not converged
     ethr =  1.45E-10,  avg # of iterations = 21.2

     total cpu time spent up to now is      350.9 secs

     total energy              =    -520.62065657 Ry
     estimated scf accuracy    <       0.00000017 Ry

     iteration # 10     ecut=    60.00 Ry     beta= 0.70
     Davidson diagonalization with overlap
     ethr =  1.45E-10,  avg # of iterations =  4.8

     total cpu time spent up to now is      353.5 secs

     total energy              =    -520.62065658 Ry
     estimated scf accuracy    <       0.00000008 Ry

     iteration # 11     ecut=    60.00 Ry     beta= 0.70
     Davidson diagonalization with overlap
     ethr =  1.45E-10,  avg # of iterations =  4.7

     total cpu time spent up to now is      356.2 secs

     End of self-consistent calculation

     =================== HUBBARD OCCUPATIONS ===================
     ------------------------ ATOM    3 ------------------------
     Tr[ns(  3)] =   5.23659
     eigenvalues:
       0.219  0.311  0.398  0.714  0.975
     eigenvectors (columns):
       0.538  0.001 -0.203  0.002 -0.818
      -0.001 -0.964  0.002  0.264 -0.002
      -0.802  0.000 -0.422 -0.002 -0.422
       0.260 -0.003 -0.883  0.000  0.390
       0.002 -0.264  0.001 -0.964 -0.001
     occupation matrix ns (before diag.):
       0.733  0.001  0.276 -0.209 -0.000
       0.001  0.339  0.000 -0.001 -0.103
       0.276  0.000  0.386 -0.058  0.001
      -0.209 -0.001 -0.058  0.474 -0.000
      -0.000 -0.103  0.001 -0.000  0.686

     Number of occupied Hubbard levels =    5.2366

          k = 0.0000 0.0000 0.0000 (  3893 PWs)   bands (ev):

   -72.8961 -42.3204 -41.5449 -40.9350 -11.8815 -10.5509 -10.2860 -10.0639
     0.8178   1.5004   2.2347   2.6909   3.0652   3.9086   4.1183   4.3530
     4.6248   5.4061   5.6099   5.6474   6.0516   7.1225   7.9944  10.0570
    10.3317  11.7162

          k =-0.0001 0.0006 0.1875 (  3895 PWs)   bands (ev):

   -72.8961 -42.3204 -41.5450 -40.9350 -11.6848 -10.7065 -10.3573 -10.1007
     1.0118   1.7956   1.9857   3.0672   3.0775   3.8702   4.0281   4.4652
     4.6100   4.9477   5.5573   5.5711   5.7523   7.0797   8.0943   9.7688
    10.3742  12.8312

          k = 0.0003-0.0013-0.3749 (  3896 PWs)   bands (ev):

   -72.8960 -42.3205 -41.5450 -40.9350 -11.3532 -10.9828 -10.4291 -10.1526
     1.2700   1.8240   2.5156   3.0127   3.0633   3.4945   3.8646   4.5458
     4.5572   4.8362   5.4648   5.4906   5.6174   7.0361   8.1743   9.5307
    10.4173  14.4351

          k = 0.0002 0.1194-0.0963 (  3890 PWs)   bands (ev):

   -72.8961 -42.3204 -41.5450 -40.9350 -11.7769 -10.5793 -10.4205 -10.0469
     1.0387   1.5179   2.1931   2.7958   3.1008   3.9298   4.1175   4.2994
     4.6912   5.0125   5.4737   5.5997   6.0574   7.1458   7.9872  10.1193
    10.3728  12.5074

          k = 0.0000 0.1200 0.0912 (  3904 PWs)   bands (ev):

   -72.8961 -42.3204 -41.5449 -40.9350 -11.7287 -10.7884 -10.2524 -10.0538
     0.9499   1.8005   2.0973   2.8937   3.0324   3.8085   3.9092   4.4697
     4.6297   5.2069   5.5541   5.5762   5.8263   7.1163   8.0911   9.7704
    10.3323  12.4816

          k = 0.0004 0.1181-0.4712 (  3922 PWs)   bands (ev):

   -72.8961 -42.3205 -41.5450 -40.9350 -11.4023 -11.0633 -10.3313 -10.0939
     1.3062   1.6511   2.4277   3.0311   3.1547   3.5118   3.8919   4.3403
     4.5737   5.0776   5.4277   5.4691   5.6650   7.0720   8.1921   9.5346
    10.3754  13.8406

          k = 0.0003 0.1187-0.2838 (  3907 PWs)   bands (ev):

   -72.8960 -42.3204 -41.5450 -40.9350 -11.5326 -10.7867 -10.4857 -10.0860
     1.2348   1.7890   2.2229   2.9699   3.1006   3.8294   3.8880   4.4195
     4.5059   4.9016   5.4310   5.5187   5.7611   7.1059   8.1134   9.8458
    10.4150  14.0742

          k =-0.0003-0.2387 0.1926 (  3908 PWs)   bands (ev):

   -72.8961 -42.3204 -41.5450 -40.9350 -11.6435 -10.6806 -10.5062 -10.0335
     1.0181   1.8602   2.3986   2.8275   3.1390   3.6016   3.9546   4.2408
     4.5763   4.9882   5.4641   5.5510   6.0622   7.1693   7.9785  10.1862
    10.4132  13.8176

          k =-0.0005-0.2381 0.3800 (  3904 PWs)   bands (ev):

   -72.8961 -42.3204 -41.5450 -40.9350 -11.5902 -10.8586 -10.3749 -10.0419
     1.3341   1.7539   1.9996   2.9119   3.0635   3.7984   3.9312   4.4227
     4.7402   4.8835   5.4219   5.5024   5.7960   7.1409   8.1202   9.8522
    10.3733  13.4068

          k =-0.0000-0.2400-0.1823 (  3900 PWs)   bands (ev):

   -72.8961 -42.3205 -41.5449 -40.9350 -11.4433 -11.1339 -10.2378 -10.0487
     1.1538   1.8232   2.3098   3.0008   3.0350   3.7092   3.9212   4.1049
     4.5840   5.1818   5.4540   5.5537   5.7130   7.1063   8.1596   9.5192
    10.3334  13.7513

          k = 0.2494-0.0610-0.1388 (  3913 PWs)   bands (ev):

   -72.8933 -42.3174 -41.5394 -40.9735 -11.3254 -10.5811 -10.2156 -10.0482
     1.4028   1.6706   2.1280   2.4315   2.7795   3.0167   3.8241   4.0064
     4.2747   5.0139   5.2879   5.4993   6.1054   6.9683   8.0120   9.6775
    10.0870  13.9271

          k = 0.2493-0.0603 0.0487 (  3893 PWs)   bands (ev):

   -72.8933 -42.3174 -41.5394 -40.9735 -11.4242 -10.4536 -10.2616 -10.0151
     1.4215   1.8133   2.0460   2.4454   2.8230   2.8697   3.7070   3.9682
     4.2937   5.0204   5.3730   5.5510   6.0327   7.0590   7.9415   9.7427
    10.0618  13.5779

          k = 0.2497-0.0622-0.5137 (  3920 PWs)   bands (ev):

   -72.8933 -42.3174 -41.5395 -40.9735 -11.2291 -10.5507 -10.3484 -10.0669
     1.3229   1.6803   2.1977   2.5567   2.6727   3.0104   3.9843   4.1142
     4.3915   4.9159   5.0540   5.4657   6.1464   6.9605   8.0073   9.6298
    10.0166  14.6993

          k = 0.2496-0.0616-0.3262 (  3917 PWs)   bands (ev):

   -72.8933 -42.3175 -41.5395 -40.9735 -11.0430 -10.7645 -10.2994 -10.1050
     1.3338   1.6473   2.0929   2.4444   2.7306   3.3593   3.9089   4.1976
     4.3798   4.8565   4.9999   5.4526   6.1666   6.8829   8.0745   9.7893
     9.8470  15.0982

          k = 0.2496 0.0584-0.2351 (  3919 PWs)   bands (ev):

   -72.8933 -42.3174 -41.5395 -40.9735 -11.2306 -10.5501 -10.3470 -10.0671
     1.3222   1.6815   2.1984   2.5539   2.6737   3.0084   3.9818   4.1130
     4.3939   4.9197   5.0518   5.4670   6.1470   6.9619   8.0066   9.6311
    10.0149  14.6950

          k = 0.2494 0.0590-0.0476 (  3898 PWs)   bands (ev):

   -72.8933 -42.3174 -41.5394 -40.9735 -11.4252 -10.4535 -10.2604 -10.0151
     1.4212   1.8128   2.0464   2.4444   2.8187   2.8743   3.7062   3.9664
     4.2964   5.0163   5.3783   5.5515   6.0309   7.0596   7.9415   9.7425
    10.0623  13.5754

          k = 0.2499 0.0571-0.6100 (  3912 PWs)   bands (ev):

   -72.8933 -42.3174 -41.5394 -40.9735 -11.3251 -10.5803 -10.2165 -10.0486
     1.4015   1.6717   2.1274   2.4296   2.7847   3.0141   3.8246   4.0080
     4.2761   5.0109   5.2860   5.5005   6.1066   6.9687   8.0119   9.6743
    10.0882  13.9313

          k = 0.2497 0.0578-0.4225 (  3914 PWs)   bands (ev):

   -72.8933 -42.3175 -41.5395 -40.9735 -11.0428 -10.7635 -10.3001 -10.1055
     1.3337   1.6468   2.0923   2.4439   2.7310   3.3620   3.9117   4.1966
     4.3762   4.8551   5.0018   5.4535   6.1675   6.8836   8.0734   9.7896
     9.8448  15.1006

          k = 0.2491-0.2997 0.0538 (  3925 PWs)   bands (ev):

   -72.8933 -42.3174 -41.5395 -40.9735 -11.1593 -10.6489 -10.3464 -10.0514
     1.4689   1.8405   2.1081   2.4636   2.6741   3.1206   3.7005   4.0259
     4.3779   4.8908   5.1117   5.5229   6.1376   6.9721   8.0222   9.6426
    10.0970  14.7049

          k = 0.2490-0.2991 0.2413 (  3915 PWs)   bands (ev):

   -72.8933 -42.3174 -41.5395 -40.9735 -11.2925 -10.4752 -10.4040 -10.0171
     1.3847   1.9720   2.2597   2.5060   2.6633   2.8950   3.5484   3.9297
     4.4818   4.9039   5.1516   5.5791   6.0981   7.0781   7.9287   9.6891
    10.0601  14.4831

          k = 0.2494-0.3010-0.3211 (  3912 PWs)   bands (ev):

   -72.8933 -42.3174 -41.5394 -40.9735 -11.2738 -10.6434 -10.2281 -10.0360
     1.6080   1.7807   1.9344   2.5594   2.7889   3.0539   3.5615   3.8824
     4.1460   5.0705   5.3425   5.5606   6.0920   6.9736   8.0242   9.7002
    10.1710  13.8570

          k = 0.2492-0.3003-0.1336 (  3920 PWs)   bands (ev):

   -72.8933 -42.3175 -41.5394 -40.9735 -11.0626 -10.8686 -10.2005 -10.0657
     1.5666   1.7137   1.9691   2.5621   2.7570   3.1008   3.5104   4.1674
     4.2857   4.8468   5.3075   5.5293   6.1405   6.8817   8.0872   9.8862
     9.9308  14.6228

          k = 0.2493-0.1803-0.0425 (  3913 PWs)   bands (ev):

   -72.8933 -42.3174 -41.5394 -40.9735 -11.2725 -10.6441 -10.2292 -10.0358
     1.6083   1.7817   1.9329   2.5649   2.7881   3.0486   3.5617   3.8834
     4.1477   5.0733   5.3363   5.5626   6.0932   6.9731   8.0232   9.7029
    10.1682  13.8573

          k = 0.2491-0.1797 0.1450 (  3921 PWs)   bands (ev):

   -72.8933 -42.3174 -41.5395 -40.9735 -11.2911 -10.4759 -10.4050 -10.0170
     1.3841   1.9713   2.2621   2.5096   2.6631   2.8928   3.5473   3.9306
     4.4808   4.9020   5.1540   5.5784   6.0982   7.0774   7.9288   9.6887
    10.0603  14.4884

          k = 0.2495-0.1816-0.4174 (  3924 PWs)   bands (ev):

   -72.8933 -42.3174 -41.5395 -40.9735 -11.1597 -10.6497 -10.3456 -10.0509
     1.4689   1.8415   2.1070   2.4659   2.6703   3.1242   3.6961   4.0287
     4.3775   4.8927   5.1112   5.5212   6.1357   6.9710   8.0235   9.6419
    10.1003  14.6999

          k = 0.2494-0.1810-0.2299 (  3913 PWs)   bands (ev):

   -72.8933 -42.3175 -41.5394 -40.9735 -11.0627 -10.8695 -10.1996 -10.0655
     1.5674   1.7125   1.9707   2.5638   2.7559   3.1001   3.5069   4.1687
     4.2860   4.8452   5.3113   5.5275   6.1392   6.8810   8.0880   9.8852
     9.9338  14.6221

          k =-0.4988 0.1219 0.2775 (  3924 PWs)   bands (ev):

   -72.8910 -42.3145 -41.5339 -41.0117 -10.6382 -10.4412 -10.2834 -10.1110
     0.7081   1.2086   1.8410   2.2745   2.5936   3.4976   3.8861   4.2540
     4.5358   4.7627   4.8022   5.3274   5.9647   6.7857   7.9180   9.9795
    10.0894  15.3022

          k =-0.4990 0.1226 0.4650 (  3919 PWs)   bands (ev):

   -72.8910 -42.3144 -41.5339 -41.0117 -10.6844 -10.4578 -10.2691 -10.0690
     0.9144   1.2309   1.9691   2.3760   2.6016   3.4241   3.6772   4.2165
     4.3892   4.5156   4.9091   5.1613   5.9610   6.9564   7.9030   9.7871
    10.0538  15.8377

          k =-0.4986 0.1207-0.0974 (  3936 PWs)   bands (ev):

   -72.8909 -42.3144 -41.5340 -41.0117 -10.7227 -10.4777 -10.2529 -10.0333
     1.0819   1.3468   2.2096   2.4404   2.6627   3.0963   3.4005   4.1410
     4.3403   4.4865   4.8901   5.0326   5.9517   7.0862   7.8921   9.5714
    10.0682  16.0828

          k =-0.4987 0.2413 0.1812 (  3933 PWs)   bands (ev):

   -72.8910 -42.3145 -41.5340 -41.0117 -10.6382 -10.4413 -10.2830 -10.1113
     0.7733   1.1113   1.8484   2.2703   2.5762   3.6529   3.8589   4.1883
     4.5289   4.7500   4.8123   5.3207   5.9635   6.7891   7.9116   9.9930
    10.0655  15.6193

          k =-0.4988 0.2419 0.3687 (  3926 PWs)   bands (ev):

   -72.8910 -42.3144 -41.5340 -41.0117 -10.6845 -10.4612 -10.2656 -10.0688
     0.9001   1.2679   1.9644   2.2327   2.8030   3.3394   3.6747   4.1955
     4.3999   4.5157   4.9239   5.1678   5.9592   6.9620   7.9025   9.7750
    10.0670  15.6264

          k =-0.4984 0.2400-0.1937 (  3915 PWs)   bands (ev):

   -72.8909 -42.3144 -41.5339 -41.0117 -10.7254 -10.4725 -10.2577 -10.0308
     1.0986   1.3143   2.1770   2.5291   2.6994   2.9961   3.4707   4.1192
     4.2707   4.4807   4.8709   5.0948   5.9557   7.0921   7.8921   9.5799
    10.0601  16.0360

          k =-0.4985 0.2407-0.0062 (  3927 PWs)   bands (ev):

   -72.8910 -42.3144 -41.5340 -41.0117 -10.6837 -10.4598 -10.2671 -10.0695
     0.8992   1.2682   1.9608   2.2324   2.8019   3.3408   3.6755   4.2006
     4.4032   4.5145   4.9246   5.1656   5.9596   6.9606   7.9015   9.7756
    10.0674  15.6194

          k =-0.4992-0.1168 0.4701 (  3926 PWs)   bands (ev):

   -72.8910 -42.3145 -41.5339 -41.0117 -10.6385 -10.4400 -10.2845 -10.1106
     0.7094   1.2085   1.8387   2.2684   2.5872   3.4990   3.8945   4.2603
     4.5408   4.7606   4.8030   5.3257   5.9650   6.7856   7.9155   9.9758
    10.0914  15.2960

          k =-0.4993-0.1161 0.6576 (  3915 PWs)   bands (ev):

   -72.8910 -42.3144 -41.5339 -41.0117 -10.6854 -10.4581 -10.2686 -10.0679
     0.9170   1.2301   1.9683   2.3736   2.5961   3.4244   3.6786   4.2201
     4.3877   4.5195   4.9094   5.1617   5.9609   6.9577   7.9018   9.7849
    10.0542  15.8461

          k =-0.4989-0.1181 0.0952 (  3930 PWs)   bands (ev):

   -72.8909 -42.3144 -41.5340 -41.0117 -10.7243 -10.4792 -10.2511 -10.0317
     1.0862   1.3466   2.2086   2.4370   2.6599   3.0956   3.4020   4.1383
     4.3411   4.4865   4.8942   5.0323   5.9511   7.0888   7.8918   9.5676
    10.0683  16.0843

     the Fermi energy is     7.0346 ev

!    total energy              =    -520.62065662 Ry
     total all-electron energy =     -3720.873915 Ry
     estimated scf accuracy    <       0.00000003 Ry
     smearing contrib. (-TS)   =      -0.00496956 Ry
     internal energy E=F+TS    =    -520.61568705 Ry

     The total energy is F=E-TS. E is the sum of the following terms:
     one-electron contribution =    -240.22460863 Ry
     hartree contribution      =     145.17511030 Ry
     xc contribution           =     -61.24645835 Ry
     ewald contribution        =    -185.82360499 Ry
     Hubbard energy            =       0.24468569 Ry
     one-center paw contrib.   =    -178.74081106 Ry

     convergence has been achieved in  11 iterations
     force_hub    :    106.33s CPU     14.60s WALL (       7 calls)
     dndtau       :     93.09s CPU     12.91s WALL (    5292 calls)
     dprojdtau    :     13.19s CPU      2.02s WALL (    5292 calls)
     calc_doverla :     51.02s CPU      6.91s WALL (    5292 calls)
     matel_dSdtau :     68.34s CPU      9.29s WALL (   10584 calls)

     Forces acting on atoms (cartesian axes, Ry/au):

     atom    1 type  1   force =     0.00082133    0.00221599   -0.00182689
     atom    2 type  1   force =     0.00011274   -0.00117351    0.00393044
     atom    3 type  3   force =    -0.00026019   -0.00125804   -0.00168975
     atom    4 type  2   force =    -0.00037588    0.00121225    0.00174916
     atom    5 type  2   force =     0.00018040   -0.00161364   -0.00376050
     atom    6 type  2   force =     0.00010586   -0.00063751    0.00087995
     atom    7 type  2   force =    -0.00058426    0.00125446    0.00071760

     Total force =     0.007439     Total SCF correction =     0.000177


     Computing stress (Cartesian axis) and pressure

     stres_hub    :    293.88s CPU     36.72s WALL (       7 calls)
     dprojdepsilo :    238.81s CPU     29.82s WALL (    2268 calls)
     dprojdeps1   :     25.97s CPU      3.30s WALL (    2268 calls)
     dprojdeps2   :    133.97s CPU     16.71s WALL (    2268 calls)
     dprojdeps3   :     78.80s CPU      9.81s WALL (    2268 calls)
          total   stress  (Ry/bohr**3)                   (kbar)     P=       -1.36
  -0.00002844  -0.00000258   0.00000273           -4.18       -0.38        0.40
  -0.00000258  -0.00000800   0.00000497           -0.38       -1.18        0.73
   0.00000273   0.00000497   0.00000867            0.40        0.73        1.27

     Energy error            =      1.7E-04 Ry
     Gradient error          =      3.9E-03 Ry/Bohr
     Cell gradient error     =      4.2E+00 kbar

     number of scf cycles    =   7
     number of bfgs steps    =   6

     enthalpy           old  =    -520.6204913855 Ry
     enthalpy           new  =    -520.6206566176 Ry

     CASE: enthalpy          _new < enthalpy          _old

     new trust radius        =       0.0097416055 bohr
     new conv_thr            =       0.0000000165 Ry

     new unit-cell volume =    487.78134 a.u.^3 (    72.28174 Ang^3 )
     density =      3.84901 g/cm^3

CELL_PARAMETERS (angstrom)
   2.961512307  -0.002829035   0.002824268
   1.495541719   6.180233753  -0.015273676
   2.961197171   3.175476921   3.942534172

ATOMIC_POSITIONS (angstrom)
Mg               3.4409108878        4.7914927645        1.4566177201
Mg               0.4764972354        1.1168436189        0.3322870376
Mn               4.9198346671        2.3284110834        2.5401192490
O                3.4528709223        6.9003706981        1.8154900342
O                4.9197952238        4.3115351358        2.8714150689
O                3.4402820829        2.7928812382        1.3685054998
O                4.9321102183        8.3989553235        3.8986119683



     Writing config-only to output data dir .\out\\qgan.save\ :
     XML data file
     NEW-OLD atomic charge density approx. for the potential
     New effective cutoffs (rho, wfc):  493.78   61.77

     Check: negative core charge=   -0.000002

     Atomic wfc used for Hubbard projectors are orthogonalized


     total cpu time spent up to now is      366.5 secs

     Self-consistent Calculation

     iteration #  1     ecut=    60.00 Ry     beta= 0.70
     Davidson diagonalization with overlap
     ethr =  1.00E-06,  avg # of iterations =  9.2

     =================== HUBBARD OCCUPATIONS ===================
     ------------------------ ATOM    3 ------------------------
     Tr[ns(  3)] =   5.23731
     eigenvalues:
       0.220  0.311  0.398  0.714  0.976
     eigenvectors (columns):
       0.538  0.001 -0.204  0.002 -0.818
      -0.001 -0.965  0.002  0.264 -0.002
      -0.802  0.000 -0.421 -0.001 -0.423
       0.258 -0.003 -0.884 -0.000  0.391
       0.002 -0.264  0.001 -0.965 -0.001
     occupation matrix ns (before diag.):
       0.733  0.001  0.277 -0.209 -0.000
       0.001  0.339  0.000 -0.001 -0.102
       0.277  0.000  0.386 -0.058  0.001
      -0.209 -0.001 -0.058  0.475 -0.000
      -0.000 -0.102  0.001 -0.000  0.686

     Number of occupied Hubbard levels =    5.2373

     Threshold (ethr) on eigenvalues was too large:
     Diagonalizing with lowered threshold

     Davidson diagonalization with overlap
     ethr =  9.51E-08,  avg # of iterations =  2.2

     total cpu time spent up to now is      373.7 secs

     total energy              =    -520.62072108 Ry
     estimated scf accuracy    <       0.00004130 Ry

     iteration #  2     ecut=    60.00 Ry     beta= 0.70
     Davidson diagonalization with overlap
     ethr =  9.60E-08,  avg # of iterations =  4.2

     total cpu time spent up to now is      376.4 secs

     total energy              =    -520.62071087 Ry
     estimated scf accuracy    <       0.00010405 Ry

     iteration #  3     ecut=    60.00 Ry     beta= 0.70
     Davidson diagonalization with overlap
     ethr =  9.60E-08,  avg # of iterations =  2.1

     total cpu time spent up to now is      378.6 secs

     total energy              =    -520.62072325 Ry
     estimated scf accuracy    <       0.00006382 Ry

     iteration #  4     ecut=    60.00 Ry     beta= 0.70
     Davidson diagonalization with overlap
     ethr =  9.60E-08,  avg # of iterations =  2.0

     total cpu time spent up to now is      380.7 secs

     total energy              =    -520.62073253 Ry
     estimated scf accuracy    <       0.00002817 Ry

     iteration #  5     ecut=    60.00 Ry     beta= 0.70
     Davidson diagonalization with overlap
     ethr =  6.55E-08,  avg # of iterations =  1.1

     total cpu time spent up to now is      382.8 secs

     total energy              =    -520.62073565 Ry
     estimated scf accuracy    <       0.00000117 Ry

     iteration #  6     ecut=    60.00 Ry     beta= 0.70
     Davidson diagonalization with overlap
     ethr =  2.71E-09,  avg # of iterations =  7.2

     total cpu time spent up to now is      386.0 secs

     total energy              =    -520.62073679 Ry
     estimated scf accuracy    <       0.00000050 Ry

     iteration #  7     ecut=    60.00 Ry     beta= 0.70
     Davidson diagonalization with overlap
     ethr =  1.16E-09,  avg # of iterations =  2.8

     total cpu time spent up to now is      388.3 secs

     total energy              =    -520.62073694 Ry
     estimated scf accuracy    <       0.00000007 Ry

     iteration #  8     ecut=    60.00 Ry     beta= 0.70
     Davidson diagonalization with overlap
     c_bands:  1 eigenvalues not converged
     c_bands:  1 eigenvalues not converged
     c_bands:  5 eigenvalues not converged
     c_bands:  3 eigenvalues not converged
     c_bands:  2 eigenvalues not converged
     c_bands:  3 eigenvalues not converged
     ethr =  1.59E-10,  avg # of iterations = 16.4

     total cpu time spent up to now is      393.5 secs

     total energy              =    -520.62073711 Ry
     estimated scf accuracy    <       0.00000010 Ry

     iteration #  9     ecut=    60.00 Ry     beta= 0.70
     Davidson diagonalization with overlap
     ethr =  1.59E-10,  avg # of iterations =  1.7

     total cpu time spent up to now is      395.7 secs

     total energy              =    -520.62073715 Ry
     estimated scf accuracy    <       0.00000005 Ry

     iteration # 10     ecut=    60.00 Ry     beta= 0.70
     Davidson diagonalization with overlap
     ethr =  1.07E-10,  avg # of iterations =  2.4

     total cpu time spent up to now is      398.1 secs

     total energy              =    -520.62073719 Ry
     estimated scf accuracy    <       0.00000003 Ry

     iteration # 11     ecut=    60.00 Ry     beta= 0.70
     Davidson diagonalization with overlap
     ethr =  7.93E-11,  avg # of iterations =  2.7

     total cpu time spent up to now is      400.6 secs

     total energy              =    -520.62073722 Ry
     estimated scf accuracy    <       0.00000002 Ry

     iteration # 12     ecut=    60.00 Ry     beta= 0.70
     Davidson diagonalization with overlap
     ethr =  4.13E-11,  avg # of iterations =  6.1

     total cpu time spent up to now is      403.6 secs

     End of self-consistent calculation

     =================== HUBBARD OCCUPATIONS ===================
     ------------------------ ATOM    3 ------------------------
     Tr[ns(  3)] =   5.23691
     eigenvalues:
       0.219  0.311  0.398  0.714  0.976
     eigenvectors (columns):
       0.540  0.001 -0.205  0.001 -0.816
      -0.001 -0.964  0.002  0.265 -0.002
      -0.801  0.001 -0.421 -0.001 -0.425
       0.257 -0.003 -0.883 -0.001  0.392
       0.001 -0.265  0.001 -0.964 -0.001
     occupation matrix ns (before diag.):
       0.731  0.001  0.277 -0.209  0.000
       0.001  0.340  0.000 -0.001 -0.103
       0.277  0.000  0.388 -0.059  0.001
      -0.209 -0.001 -0.059  0.475 -0.000
       0.000 -0.103  0.001 -0.000  0.685

     Number of occupied Hubbard levels =    5.2369

          k = 0.0000 0.0000 0.0000 (  3893 PWs)   bands (ev):

   -72.8905 -42.3173 -41.5376 -40.9289 -11.8812 -10.5532 -10.2844 -10.0608
     0.8173   1.4991   2.2320   2.6997   3.0686   3.9232   4.1037   4.3652
     4.6202   5.4079   5.6203   5.6649   6.0538   7.1359   7.9984  10.0654
    10.3375  11.7217

          k =-0.0002 0.0005 0.1873 (  3895 PWs)   bands (ev):

   -72.8904 -42.3173 -41.5377 -40.9289 -11.6857 -10.7084 -10.3524 -10.0999
     1.0119   1.7950   1.9827   3.0704   3.0803   3.8848   4.0236   4.4764
     4.5963   4.9521   5.5670   5.5902   5.7579   7.0929   8.0986   9.7769
    10.3795  12.8372

          k = 0.0004-0.0010-0.3746 (  3896 PWs)   bands (ev):

   -72.8903 -42.3174 -41.5377 -40.9289 -11.3585 -10.9805 -10.4218 -10.1538
     1.2726   1.8200   2.5083   3.0132   3.0666   3.4944   3.8784   4.5417
     4.5667   4.8365   5.4711   5.5114   5.6263   7.0492   8.1801   9.5369
    10.4221  14.4442

          k = 0.0002 0.1194-0.0963 (  3890 PWs)   bands (ev):

   -72.8904 -42.3173 -41.5376 -40.9289 -11.7767 -10.5805 -10.4198 -10.0439
     1.0389   1.5157   2.1912   2.8001   3.1037   3.9446   4.1102   4.3118
     4.6844   5.0166   5.4793   5.6172   6.0615   7.1596   7.9905  10.1283
    10.3777  12.5126

          k = 0.0000 0.1199 0.0910 (  3904 PWs)   bands (ev):

   -72.8905 -42.3173 -41.5376 -40.9289 -11.7291 -10.7912 -10.2459 -10.0541
     0.9486   1.7981   2.0979   2.8967   3.0361   3.8059   3.9236   4.4812
     4.6189   5.2111   5.5719   5.5815   5.8298   7.1297   8.0951   9.7798
    10.3384  12.4870

          k = 0.0006 0.1184-0.4709 (  3922 PWs)   bands (ev):

   -72.8904 -42.3174 -41.5377 -40.9289 -11.4061 -11.0628 -10.3231 -10.0956
     1.3062   1.6497   2.4203   3.0349   3.1591   3.5109   3.9059   4.3380
     4.5845   5.0748   5.4315   5.4887   5.6720   7.0853   8.1966   9.5436
    10.3810  13.8506

          k = 0.0004 0.1189-0.2836 (  3907 PWs)   bands (ev):

   -72.8903 -42.3173 -41.5377 -40.9289 -11.5341 -10.7872 -10.4825 -10.0843
     1.2347   1.7883   2.2180   2.9704   3.1034   3.8306   3.9027   4.4310
     4.5002   4.8987   5.4374   5.5379   5.7682   7.1195   8.1179   9.8537
    10.4195  14.0817

          k =-0.0004-0.2388 0.1926 (  3908 PWs)   bands (ev):

   -72.8904 -42.3173 -41.5377 -40.9289 -11.6436 -10.6779 -10.5093 -10.0302
     1.0179   1.8569   2.3966   2.8297   3.1412   3.6027   3.9699   4.2532
     4.5700   4.9884   5.4687   5.5688   6.0664   7.1835   7.9814  10.1957
    10.4174  13.8259

          k =-0.0006-0.2383 0.3799 (  3904 PWs)   bands (ev):

   -72.8904 -42.3173 -41.5377 -40.9289 -11.5909 -10.8611 -10.3696 -10.0411
     1.3329   1.7516   1.9983   2.9125   3.0668   3.8004   3.9457   4.4343
     4.7397   4.8766   5.4250   5.5205   5.8021   7.1546   8.1240   9.8616
    10.3786  13.4127

          k =-0.0001-0.2398-0.1820 (  3900 PWs)   bands (ev):

   -72.8904 -42.3174 -41.5376 -40.9289 -11.4460 -11.1346 -10.2285 -10.0514
     1.1515   1.8239   2.3042   3.0049   3.0372   3.7128   3.9351   4.1032
     4.5952   5.1776   5.4722   5.5537   5.7189   7.1198   8.1635   9.5300
    10.3398  13.7610

          k = 0.2498-0.0608-0.1387 (  3913 PWs)   bands (ev):

   -72.8875 -42.3143 -41.5321 -40.9681 -11.3243 -10.5814 -10.2155 -10.0397
     1.4050   1.6757   2.1254   2.4333   2.7737   3.0199   3.8351   4.0070
     4.2811   5.0108   5.2895   5.5085   6.1104   6.9771   8.0196   9.6851
    10.0958  13.9317

          k = 0.2496-0.0603 0.0487 (  3893 PWs)   bands (ev):

   -72.8875 -42.3142 -41.5320 -40.9681 -11.4224 -10.4541 -10.2625 -10.0062
     1.4234   1.8125   2.0498   2.4426   2.8258   2.8650   3.7107   3.9855
     4.2904   5.0266   5.3743   5.5566   6.0374   7.0668   7.9486   9.7510
    10.0712  13.5821

          k = 0.2502-0.0618-0.5133 (  3920 PWs)   bands (ev):

   -72.8876 -42.3143 -41.5321 -40.9681 -11.2291 -10.5500 -10.3462 -10.0603
     1.3254   1.6842   2.1953   2.5541   2.6730   3.0121   3.9954   4.1246
     4.3866   4.9146   5.0551   5.4738   6.1528   6.9678   8.0149   9.6394
    10.0264  14.7052

          k = 0.2500-0.0613-0.3260 (  3917 PWs)   bands (ev):

   -72.8876 -42.3143 -41.5321 -40.9681 -11.0467 -10.7603 -10.2955 -10.0997
     1.3385   1.6513   2.0890   2.4444   2.7328   3.3579   3.9163   4.2040
     4.3842   4.8506   5.0008   5.4594   6.1745   6.8907   8.0822   9.7991
     9.8557  15.1013

          k = 0.2500 0.0586-0.2350 (  3919 PWs)   bands (ev):

   -72.8876 -42.3143 -41.5321 -40.9681 -11.2302 -10.5496 -10.3450 -10.0605
     1.3250   1.6852   2.1958   2.5522   2.6737   3.0108   3.9927   4.1242
     4.3887   4.9171   5.0533   5.4746   6.1534   6.9689   8.0145   9.6405
    10.0249  14.7019

          k = 0.2498 0.0591-0.0477 (  3898 PWs)   bands (ev):

   -72.8875 -42.3142 -41.5320 -40.9681 -11.4231 -10.4539 -10.2617 -10.0062
     1.4232   1.8121   2.0501   2.4418   2.8221   2.8690   3.7101   3.9841
     4.2926   5.0234   5.3779   5.5571   6.0361   7.0675   7.9486   9.7509
    10.0715  13.5802

          k = 0.2504 0.0576-0.6096 (  3912 PWs)   bands (ev):

   -72.8875 -42.3143 -41.5321 -40.9681 -11.3242 -10.5807 -10.2162 -10.0399
     1.4038   1.6765   2.1250   2.4318   2.7775   3.0177   3.8358   4.0084
     4.2817   5.0086   5.2885   5.5097   6.1111   6.9775   8.0195   9.6826
    10.0968  13.9349

          k = 0.2502 0.0581-0.4223 (  3914 PWs)   bands (ev):

   -72.8876 -42.3143 -41.5321 -40.9681 -11.0466 -10.7596 -10.2960 -10.1001
     1.3383   1.6510   2.0886   2.4438   2.7331   3.3602   3.9184   4.2034
     4.3810   4.8499   5.0021   5.4601   6.1753   6.8912   8.0814   9.7994
     9.8539  15.1031

          k = 0.2494-0.2995 0.0540 (  3925 PWs)   bands (ev):

   -72.8876 -42.3143 -41.5321 -40.9681 -11.1592 -10.6488 -10.3432 -10.0454
     1.4712   1.8450   2.1040   2.4669   2.6722   3.1218   3.7077   4.0343
     4.3765   4.8902   5.1123   5.5295   6.1459   6.9787   8.0290   9.6539
    10.1072  14.7107

          k = 0.2492-0.2990 0.2413 (  3915 PWs)   bands (ev):

   -72.8875 -42.3143 -41.5321 -40.9681 -11.2908 -10.4746 -10.4036 -10.0103
     1.3864   1.9714   2.2582   2.5089   2.6628   2.8955   3.5547   3.9442
     4.4755   4.9029   5.1571   5.5866   6.1053   7.0840   7.9349   9.6993
    10.0718  14.4907

          k = 0.2497-0.3006-0.3207 (  3912 PWs)   bands (ev):

   -72.8875 -42.3143 -41.5320 -40.9681 -11.2726 -10.6444 -10.2264 -10.0285
     1.6105   1.7818   1.9374   2.5575   2.7884   3.0536   3.5692   3.8857
     4.1501   5.0715   5.3424   5.5685   6.0991   6.9820   8.0306   9.7101
    10.1797  13.8608

          k = 0.2496-0.3001-0.1334 (  3920 PWs)   bands (ev):

   -72.8875 -42.3143 -41.5321 -40.9681 -11.0652 -10.8661 -10.1974 -10.0592
     1.5698   1.7185   1.9700   2.5627   2.7531   3.1044   3.5128   4.1727
     4.2908   4.8398   5.3092   5.5395   6.1470   6.8906   8.0945   9.8964
     9.9384  14.6223

          k = 0.2496-0.1802-0.0424 (  3913 PWs)   bands (ev):

   -72.8875 -42.3143 -41.5321 -40.9681 -11.2715 -10.6450 -10.2271 -10.0285
     1.6108   1.7826   1.9364   2.5618   2.7876   3.0497   3.5691   3.8866
     4.1515   5.0734   5.3377   5.5697   6.1004   6.9814   8.0299   9.7122
    10.1774  13.8611

          k = 0.2494-0.1797 0.1450 (  3921 PWs)   bands (ev):

   -72.8875 -42.3143 -41.5321 -40.9681 -11.2897 -10.4752 -10.4043 -10.0103
     1.3860   1.9709   2.2600   2.5119   2.6624   2.8938   3.5536   3.9448
     4.4745   4.9018   5.1591   5.5860   6.1055   7.0832   7.9349   9.6989
    10.0720  14.4946

          k = 0.2500-0.1812-0.4170 (  3924 PWs)   bands (ev):

   -72.8876 -42.3143 -41.5321 -40.9681 -11.1595 -10.6493 -10.3426 -10.0450
     1.4713   1.8457   2.1030   2.4687   2.6694   3.1244   3.7042   4.0369
     4.3762   4.8914   5.1121   5.5284   6.1441   6.9780   8.0298   9.6532
    10.1100  14.7069

          k = 0.2498-0.1807-0.2297 (  3913 PWs)   bands (ev):

   -72.8875 -42.3143 -41.5321 -40.9681 -11.0651 -10.8668 -10.1967 -10.0591
     1.5706   1.7176   1.9710   2.5643   2.7522   3.1036   3.5103   4.1735
     4.2915   4.8385   5.3121   5.5381   6.1459   6.8900   8.0952   9.8956
     9.9409  14.6217

          k =-0.4996 0.1216 0.2773 (  3924 PWs)   bands (ev):

   -72.8852 -42.3112 -41.5265 -41.0069 -10.6379 -10.4372 -10.2905 -10.0916
     0.7124   1.2097   1.8391   2.2752   2.5951   3.4920   3.8879   4.2590
     4.5443   4.7560   4.8036   5.3308   5.9770   6.7933   7.9261   9.9889
    10.0986  15.3004

          k =-0.4998 0.1221 0.4646 (  3919 PWs)   bands (ev):

   -72.8852 -42.3112 -41.5265 -41.0069 -10.6820 -10.4548 -10.2753 -10.0514
     0.9164   1.2289   1.9685   2.3793   2.6015   3.4208   3.6763   4.2220
     4.3979   4.5150   4.9101   5.1639   5.9735   6.9618   7.9113   9.7971
    10.0640  15.8366

          k =-0.4992 0.1206-0.0973 (  3936 PWs)   bands (ev):

   -72.8851 -42.3112 -41.5265 -41.0069 -10.7190 -10.4751 -10.2588 -10.0169
     1.0796   1.3433   2.2067   2.4461   2.6615   3.1023   3.3984   4.1428
     4.3507   4.4876   4.8956   5.0312   5.9642   7.0904   7.9003   9.5824
    10.0788  16.0827

          k =-0.4994 0.2410 0.1810 (  3933 PWs)   bands (ev):

   -72.8852 -42.3112 -41.5265 -41.0069 -10.6379 -10.4374 -10.2901 -10.0917
     0.7783   1.1114   1.8465   2.2725   2.5784   3.6460   3.8589   4.1919
     4.5370   4.7451   4.8140   5.3248   5.9757   6.7966   7.9200  10.0018
    10.0753  15.6098

          k =-0.4996 0.2415 0.3683 (  3926 PWs)   bands (ev):

   -72.8852 -42.3112 -41.5265 -41.0069 -10.6820 -10.4579 -10.2722 -10.0513
     0.9013   1.2665   1.9626   2.2360   2.8028   3.3388   3.6737   4.2028
     4.4054   4.5158   4.9229   5.1719   5.9716   6.9672   7.9108   9.7855
    10.0769  15.6290

          k =-0.4990 0.2399-0.1936 (  3915 PWs)   bands (ev):

   -72.8851 -42.3112 -41.5265 -41.0069 -10.7214 -10.4698 -10.2635 -10.0148
     1.0957   1.3108   2.1758   2.5345   2.6986   2.9985   3.4710   4.1192
     4.2824   4.4821   4.8747   5.0951   5.9684   7.0958   7.9004   9.5909
    10.0710  16.0420

          k =-0.4992 0.2405-0.0063 (  3927 PWs)   bands (ev):

   -72.8852 -42.3112 -41.5265 -41.0069 -10.6814 -10.4569 -10.2734 -10.0518
     0.9007   1.2668   1.9598   2.2358   2.8019   3.3399   3.6742   4.2071
     4.4078   4.5148   4.9233   5.1703   5.9720   6.9662   7.9100   9.7860
    10.0772  15.6230

          k =-0.5000-0.1172 0.4699 (  3926 PWs)   bands (ev):

   -72.8852 -42.3112 -41.5265 -41.0069 -10.6382 -10.4363 -10.2914 -10.0912
     0.7134   1.2096   1.8375   2.2702   2.5900   3.4935   3.8945   4.2634
     4.5479   4.7543   4.8044   5.3297   5.9773   6.7933   7.9243   9.9859
    10.1002  15.2950

          k =-0.5002-0.1167 0.6572 (  3915 PWs)   bands (ev):

   -72.8852 -42.3112 -41.5265 -41.0069 -10.6828 -10.4550 -10.2749 -10.0505
     0.9184   1.2283   1.9679   2.3773   2.5969   3.4214   3.6774   4.2246
     4.3966   4.5181   4.9102   5.1645   5.9734   6.9628   7.9104   9.7953
    10.0643  15.8428

          k =-0.4997-0.1182 0.0953 (  3930 PWs)   bands (ev):

   -72.8851 -42.3112 -41.5265 -41.0069 -10.7202 -10.4762 -10.2574 -10.0157
     1.0829   1.3431   2.2059   2.4432   2.6592   3.1022   3.3996   4.1403
     4.3515   4.4875   4.8990   5.0310   5.9638   7.0925   7.9001   9.5794
    10.0789  16.0883

     the Fermi energy is     7.0429 ev

!    total energy              =    -520.62073737 Ry
     total all-electron energy =     -3720.873996 Ry
     estimated scf accuracy    <       0.00000001 Ry
     smearing contrib. (-TS)   =      -0.00493344 Ry
     internal energy E=F+TS    =    -520.61580392 Ry

     The total energy is F=E-TS. E is the sum of the following terms:
     one-electron contribution =    -240.41532995 Ry
     hartree contribution      =     145.27654754 Ry
     xc contribution           =     -61.24830816 Ry
     ewald contribution        =    -185.73268508 Ry
     Hubbard energy            =       0.24469939 Ry
     one-center paw contrib.   =    -178.74072766 Ry

     convergence has been achieved in  12 iterations
     force_hub    :    120.81s CPU     16.65s WALL (       8 calls)
     dndtau       :    106.30s CPU     14.70s WALL (    6048 calls)
     dprojdtau    :     15.00s CPU      2.31s WALL (    6048 calls)
     calc_doverla :     58.20s CPU      7.88s WALL (    6048 calls)
     matel_dSdtau :     78.31s CPU     10.58s WALL (   12096 calls)

     Forces acting on atoms (cartesian axes, Ry/au):

     atom    1 type  1   force =     0.00061022    0.00118298   -0.00036874
     atom    2 type  1   force =     0.00011228   -0.00174574    0.00185713
     atom    3 type  3   force =    -0.00032460   -0.00019206   -0.00000047
     atom    4 type  2   force =    -0.00034799    0.00037205    0.00078738
     atom    5 type  2   force =     0.00023201   -0.00167316   -0.00209728
     atom    6 type  2   force =     0.00015300    0.00107544    0.00005930
     atom    7 type  2   force =    -0.00043492    0.00098050   -0.00023731

     Total force =     0.004368     Total SCF correction =     0.000175


     Computing stress (Cartesian axis) and pressure

     stres_hub    :    334.19s CPU     42.13s WALL (       8 calls)
     dprojdepsilo :    271.30s CPU     34.21s WALL (    2592 calls)
     dprojdeps1   :     29.55s CPU      3.76s WALL (    2592 calls)
     dprojdeps2   :    153.33s CPU     19.16s WALL (    2592 calls)
     dprojdeps3   :     88.34s CPU     11.29s WALL (    2592 calls)
          total   stress  (Ry/bohr**3)                   (kbar)     P=       -0.80
  -0.00000513  -0.00000161   0.00000176           -0.75       -0.24        0.26
  -0.00000161  -0.00000508   0.00000129           -0.24       -0.75        0.19
   0.00000176   0.00000129  -0.00000607            0.26        0.19       -0.89

     Energy error            =      8.1E-05 Ry
     Gradient error          =      2.1E-03 Ry/Bohr
     Cell gradient error     =      8.9E-01 kbar

     number of scf cycles    =   8
     number of bfgs steps    =   7

     enthalpy           old  =    -520.6206566176 Ry
     enthalpy           new  =    -520.6207373668 Ry

     CASE: enthalpy          _new < enthalpy          _old

     new trust radius        =       0.0055755882 bohr
     new conv_thr            =       0.0000000100 Ry

     new unit-cell volume =    487.59825 a.u.^3 (    72.25461 Ang^3 )
     density =      3.85046 g/cm^3

CELL_PARAMETERS (angstrom)
   2.959687877  -0.003114066   0.003124340
   1.494009185   6.180407181  -0.013493107
   2.959472110   3.176398331   3.944418250

ATOMIC_POSITIONS (angstrom)
Mg               3.4391392007        4.7934470717        1.4576496350
Mg               0.4762450397        1.1154883431        0.3352568187
Mn               4.9165637215        2.3289263679        2.5412472676
O                3.4499092412        6.9009174065        1.8188172320
O                4.9168445567        4.3106498296        2.8711169862
O                3.4381451773        2.7931230165        1.3700266193
O                4.9281641288        8.4008393671        3.9023165671



     Writing config-only to output data dir .\out\\qgan.save\ :
     XML data file
     NEW-OLD atomic charge density approx. for the potential
     New effective cutoffs (rho, wfc):  493.44   61.72

     Check: negative core charge=   -0.000002

     Atomic wfc used for Hubbard projectors are orthogonalized


     total cpu time spent up to now is      414.0 secs

     Self-consistent Calculation

     iteration #  1     ecut=    60.00 Ry     beta= 0.70
     Davidson diagonalization with overlap
     ethr =  1.00E-06,  avg # of iterations =  5.1

     =================== HUBBARD OCCUPATIONS ===================
     ------------------------ ATOM    3 ------------------------
     Tr[ns(  3)] =   5.23673
     eigenvalues:
       0.219  0.312  0.399  0.713  0.975
     eigenvectors (columns):
       0.540  0.001 -0.206  0.001 -0.816
      -0.001 -0.964  0.002  0.265 -0.002
      -0.802  0.001 -0.420 -0.001 -0.425
       0.256 -0.003 -0.884 -0.001  0.392
       0.001 -0.265  0.001 -0.964 -0.001
     occupation matrix ns (before diag.):
       0.730  0.001  0.278 -0.209  0.000
       0.001  0.340  0.000 -0.001 -0.103
       0.278  0.000  0.387 -0.059  0.001
      -0.209 -0.001 -0.059  0.475 -0.000
       0.000 -0.103  0.001 -0.000  0.685

     Number of occupied Hubbard levels =    5.2367

     Threshold (ethr) on eigenvalues was too large:
     Diagonalizing with lowered threshold

     Davidson diagonalization with overlap
     ethr =  1.74E-08,  avg # of iterations =  4.6

     total cpu time spent up to now is      420.2 secs

     total energy              =    -520.62075995 Ry
     estimated scf accuracy    <       0.00000854 Ry

     iteration #  2     ecut=    60.00 Ry     beta= 0.70
     Davidson diagonalization with overlap
     ethr =  1.98E-08,  avg # of iterations =  4.1

     total cpu time spent up to now is      422.8 secs

     total energy              =    -520.62075966 Ry
     estimated scf accuracy    <       0.00001143 Ry

     iteration #  3     ecut=    60.00 Ry     beta= 0.70
     Davidson diagonalization with overlap
     ethr =  1.98E-08,  avg # of iterations =  2.0

     total cpu time spent up to now is      425.0 secs

     total energy              =    -520.62076220 Ry
     estimated scf accuracy    <       0.00000272 Ry

     iteration #  4     ecut=    60.00 Ry     beta= 0.70
     Davidson diagonalization with overlap
     ethr =  6.32E-09,  avg # of iterations =  2.7

     total cpu time spent up to now is      427.4 secs

     total energy              =    -520.62076238 Ry
     estimated scf accuracy    <       0.00000537 Ry

     iteration #  5     ecut=    60.00 Ry     beta= 0.70
     Davidson diagonalization with overlap
     ethr =  6.32E-09,  avg # of iterations =  1.8

     total cpu time spent up to now is      429.6 secs

     total energy              =    -520.62076301 Ry
     estimated scf accuracy    <       0.00000051 Ry

     iteration #  6     ecut=    60.00 Ry     beta= 0.70
     Davidson diagonalization with overlap
     ethr =  1.18E-09,  avg # of iterations =  3.8

     total cpu time spent up to now is      432.0 secs

     total energy              =    -520.62076316 Ry
     estimated scf accuracy    <       0.00000006 Ry

     iteration #  7     ecut=    60.00 Ry     beta= 0.70
     Davidson diagonalization with overlap
     ethr =  1.32E-10,  avg # of iterations = 10.9

     total cpu time spent up to now is      436.2 secs

     total energy              =    -520.62076322 Ry
     estimated scf accuracy    <       0.00000002 Ry

     iteration #  8     ecut=    60.00 Ry     beta= 0.70
     Davidson diagonalization with overlap
     ethr =  4.41E-11,  avg # of iterations =  7.0

     total cpu time spent up to now is      439.2 secs

     End of self-consistent calculation

     =================== HUBBARD OCCUPATIONS ===================
     ------------------------ ATOM    3 ------------------------
     Tr[ns(  3)] =   5.23680
     eigenvalues:
       0.219  0.312  0.399  0.713  0.975
     eigenvectors (columns):
       0.540  0.002 -0.206  0.001 -0.816
      -0.001 -0.964  0.002  0.265 -0.002
      -0.802  0.001 -0.420 -0.001 -0.425
       0.255 -0.003 -0.884 -0.001  0.392
       0.001 -0.265  0.001 -0.964 -0.001
     occupation matrix ns (before diag.):
       0.730  0.001  0.278 -0.209  0.000
       0.001  0.340  0.000 -0.001 -0.103
       0.278  0.000  0.387 -0.059  0.001
      -0.209 -0.001 -0.059  0.476 -0.000
       0.000 -0.103  0.001 -0.000  0.685

     Number of occupied Hubbard levels =    5.2368

          k = 0.0000 0.0000 0.0000 (  3893 PWs)   bands (ev):

   -72.8855 -42.3129 -41.5323 -40.9237 -11.8804 -10.5533 -10.2821 -10.0551
     0.8170   1.5007   2.2324   2.7028   3.0714   3.9296   4.1031   4.3716
     4.6206   5.4128   5.6271   5.6775   6.0595   7.1420   8.0037  10.0734
    10.3456  11.7290

          k =-0.0002 0.0005 0.1873 (  3895 PWs)   bands (ev):

   -72.8854 -42.3130 -41.5324 -40.9237 -11.6852 -10.7083 -10.3494 -10.0948
     1.0119   1.7965   1.9839   3.0733   3.0819   3.8911   4.0244   4.4825
     4.5947   4.9568   5.5741   5.6031   5.7643   7.0992   8.1044   9.7846
    10.3875  12.8445

          k = 0.0004-0.0009-0.3746 (  3896 PWs)   bands (ev):

   -72.8853 -42.3130 -41.5324 -40.9237 -11.3587 -10.9800 -10.4184 -10.1490
     1.2726   1.8210   2.5098   3.0164   3.0696   3.4939   3.8844   4.5422
     4.5725   4.8381   5.4782   5.5244   5.6337   7.0555   8.1863   9.5442
    10.4301  14.4532

          k = 0.0002 0.1194-0.0963 (  3890 PWs)   bands (ev):

   -72.8854 -42.3129 -41.5324 -40.9237 -11.7759 -10.5799 -10.4181 -10.0384
     1.0393   1.5168   2.1919   2.8015   3.1063   3.9510   4.1111   4.3182
     4.6855   5.0204   5.4862   5.6297   6.0668   7.1660   7.9959  10.1365
    10.3857  12.5194

          k = 0.0000 0.1199 0.0910 (  3904 PWs)   bands (ev):

   -72.8855 -42.3130 -41.5323 -40.9237 -11.7286 -10.7910 -10.2426 -10.0495
     0.9485   1.7984   2.1006   2.8981   3.0390   3.8074   3.9299   4.4874
     4.6175   5.2180   5.5835   5.5863   5.8361   7.1361   8.1005   9.7882
    10.3465  12.4939

          k = 0.0006 0.1185-0.4709 (  3922 PWs)   bands (ev):

   -72.8854 -42.3131 -41.5324 -40.9237 -11.4062 -11.0621 -10.3193 -10.0913
     1.3064   1.6503   2.4215   3.0379   3.1618   3.5120   3.9118   4.3390
     4.5905   5.0765   5.4376   5.5015   5.6787   7.0918   8.2025   9.5518
    10.3891  13.8589

          k = 0.0004 0.1189-0.2836 (  3907 PWs)   bands (ev):

   -72.8854 -42.3130 -41.5324 -40.9237 -11.5336 -10.7868 -10.4800 -10.0791
     1.2351   1.7898   2.2181   2.9723   3.1061   3.8324   3.9089   4.4372
     4.5007   4.9006   5.4448   5.5506   5.7742   7.1260   8.1238   9.8615
    10.4274  14.0893

          k =-0.0005-0.2388 0.1926 (  3908 PWs)   bands (ev):

   -72.8854 -42.3129 -41.5324 -40.9237 -11.6428 -10.6756 -10.5095 -10.0247
     1.0191   1.8569   2.3978   2.8304   3.1437   3.6050   3.9763   4.2597
     4.5715   4.9921   5.4752   5.5812   6.0709   7.1901   7.9869  10.2041
    10.4252  13.8331

          k =-0.0007-0.2383 0.3799 (  3904 PWs)   bands (ev):

   -72.8854 -42.3130 -41.5324 -40.9237 -11.5902 -10.8610 -10.3665 -10.0363
     1.3333   1.7522   1.9996   2.9133   3.0697   3.8036   3.9518   4.4406
     4.7412   4.8788   5.4307   5.5329   5.8079   7.1613   8.1296   9.8701
    10.3867  13.4193

          k =-0.0001-0.2397-0.1819 (  3900 PWs)   bands (ev):

   -72.8855 -42.3131 -41.5323 -40.9237 -11.4461 -11.1338 -10.2245 -10.0475
     1.1516   1.8240   2.3056   3.0080   3.0397   3.7155   3.9410   4.1040
     4.6014   5.1807   5.4846   5.5570   5.7261   7.1265   8.1690   9.5389
    10.3480  13.7678

          k = 0.2500-0.0607-0.1386 (  3913 PWs)   bands (ev):

   -72.8825 -42.3099 -41.5267 -40.9632 -11.3228 -10.5805 -10.2133 -10.0331
     1.4057   1.6787   2.1263   2.4354   2.7747   3.0220   3.8410   4.0100
     4.2857   5.0119   5.2947   5.5161   6.1171   6.9829   8.0257   9.6932
    10.1042  13.9376

          k = 0.2498-0.0603 0.0486 (  3893 PWs)   bands (ev):

   -72.8825 -42.3099 -41.5267 -40.9632 -11.4208 -10.4533 -10.2603  -9.9996
     1.4242   1.8145   2.0511   2.4438   2.8284   2.8656   3.7138   3.9948
     4.2917   5.0303   5.3788   5.5642   6.0440   7.0724   7.9543   9.7590
    10.0800  13.5882

          k = 0.2504-0.0616-0.5132 (  3920 PWs)   bands (ev):

   -72.8825 -42.3099 -41.5268 -40.9632 -11.2279 -10.5490 -10.3436 -10.0540
     1.3266   1.6865   2.1972   2.5550   2.6752   3.0134   4.0023   4.1290
     4.3879   4.9190   5.0568   5.4819   6.1600   6.9730   8.0212   9.6477
    10.0351  14.7114

          k = 0.2502-0.0612-0.3259 (  3917 PWs)   bands (ev):

   -72.8825 -42.3100 -41.5268 -40.9631 -11.0460 -10.7589 -10.2927 -10.0935
     1.3400   1.6539   2.0905   2.4464   2.7356   3.3590   3.9209   4.2080
     4.3885   4.8526   5.0027   5.4672   6.1820   6.8962   8.0886   9.8076
     9.8639  15.1044

          k = 0.2502 0.0587-0.2350 (  3919 PWs)   bands (ev):

   -72.8825 -42.3099 -41.5268 -40.9632 -11.2287 -10.5488 -10.3426 -10.0542
     1.3264   1.6874   2.1976   2.5531   2.6758   3.0125   3.9997   4.1289
     4.3897   4.9212   5.0552   5.4825   6.1606   6.9742   8.0208   9.6490
    10.0333  14.7086

          k = 0.2500 0.0591-0.0477 (  3898 PWs)   bands (ev):

   -72.8825 -42.3099 -41.5267 -40.9632 -11.4214 -10.4532 -10.2596  -9.9996
     1.4241   1.8141   2.0514   2.4430   2.8248   2.8693   3.7133   3.9936
     4.2938   5.0274   5.3819   5.5647   6.0429   7.0730   7.9543   9.7589
    10.0802  13.5867

          k = 0.2506 0.0578-0.6095 (  3912 PWs)   bands (ev):

   -72.8825 -42.3099 -41.5267 -40.9632 -11.3228 -10.5798 -10.2140 -10.0332
     1.4046   1.6794   2.1260   2.4341   2.7781   3.0200   3.8417   4.0113
     4.2861   5.0101   5.2938   5.5173   6.1177   6.9831   8.0255   9.6907
    10.1054  13.9403

          k = 0.2504 0.0582-0.4222 (  3914 PWs)   bands (ev):

   -72.8825 -42.3100 -41.5268 -40.9631 -11.0460 -10.7582 -10.2932 -10.0938
     1.3398   1.6536   2.0902   2.4459   2.7358   3.3610   3.9228   4.2074
     4.3857   4.8521   5.0037   5.4680   6.1827   6.8967   8.0878   9.8080
     9.8621  15.1059

          k = 0.2495-0.2995 0.0540 (  3925 PWs)   bands (ev):

   -72.8825 -42.3099 -41.5268 -40.9632 -11.1578 -10.6478 -10.3406 -10.0392
     1.4732   1.8469   2.1050   2.4693   2.6742   3.1232   3.7110   4.0400
     4.3794   4.8943   5.1146   5.5369   6.1534   6.9840   8.0349   9.6631
    10.1158  14.7162

          k = 0.2493-0.2991 0.2413 (  3915 PWs)   bands (ev):

   -72.8825 -42.3099 -41.5268 -40.9632 -11.2890 -10.4727 -10.4024 -10.0040
     1.3881   1.9722   2.2598   2.5116   2.6648   2.8961   3.5568   3.9523
     4.4771   4.9074   5.1607   5.5945   6.1128   7.0888   7.9406   9.7078
    10.0810  14.4977

          k = 0.2499-0.3004-0.3206 (  3912 PWs)   bands (ev):

   -72.8825 -42.3099 -41.5267 -40.9632 -11.2710 -10.6435 -10.2240 -10.0221
     1.6121   1.7840   1.9385   2.5598   2.7903   3.0544   3.5734   3.8891
     4.1552   5.0743   5.3466   5.5759   6.1064   6.9874   8.0363   9.7188
    10.1883  13.8662

          k = 0.2497-0.3000-0.1333 (  3920 PWs)   bands (ev):

   -72.8825 -42.3100 -41.5267 -40.9632 -11.0643 -10.8646 -10.1948 -10.0529
     1.5716   1.7209   1.9714   2.5652   2.7548   3.1065   3.5164   4.1764
     4.2949   4.8405   5.3142   5.5468   6.1540   6.8962   8.1006   9.9055
     9.9465  14.6234

          k = 0.2497-0.1801-0.0423 (  3913 PWs)   bands (ev):

   -72.8825 -42.3099 -41.5267 -40.9632 -11.2700 -10.6442 -10.2246 -10.0222
     1.6124   1.7847   1.9377   2.5635   2.7895   3.0509   3.5733   3.8899
     4.1564   5.0758   5.3426   5.5769   6.1075   6.9870   8.0357   9.7209
    10.1860  13.8664

          k = 0.2495-0.1797 0.1450 (  3921 PWs)   bands (ev):

   -72.8825 -42.3099 -41.5268 -40.9632 -11.2882 -10.4732 -10.4030 -10.0040
     1.3877   1.9717   2.2611   2.5144   2.6644   2.8948   3.5557   3.9529
     4.4762   4.9065   5.1624   5.5939   6.1129   7.0881   7.9407   9.7074
    10.0813  14.5011

          k = 0.2501-0.1810-0.4169 (  3924 PWs)   bands (ev):

   -72.8825 -42.3099 -41.5268 -40.9632 -11.1581 -10.6481 -10.3402 -10.0388
     1.4731   1.8475   2.1043   2.4709   2.6719   3.1254   3.7078   4.0422
     4.3791   4.8953   5.1146   5.5361   6.1518   6.9832   8.0358   9.6622
    10.1185  14.7130

          k = 0.2499-0.1806-0.2296 (  3913 PWs)   bands (ev):

   -72.8825 -42.3100 -41.5267 -40.9631 -11.0643 -10.8653 -10.1942 -10.0528
     1.5724   1.7201   1.9723   2.5666   2.7540   3.1058   3.5142   4.1772
     4.2955   4.8394   5.3167   5.5456   6.1531   6.8957   8.1011   9.9045
     9.9489  14.6229

          k =-0.4999 0.1215 0.2773 (  3924 PWs)   bands (ev):

   -72.8802 -42.3069 -41.5211 -41.0022 -10.6365 -10.4350 -10.2881 -10.0836
     0.7147   1.2110   1.8404   2.2768   2.5965   3.4934   3.8908   4.2640
     4.5470   4.7598   4.8088   5.3331   5.9851   6.7994   7.9321   9.9975
    10.1073  15.3035

          k =-0.5001 0.1219 0.4646 (  3919 PWs)   bands (ev):

   -72.8801 -42.3068 -41.5211 -41.0022 -10.6800 -10.4526 -10.2729 -10.0439
     0.9178   1.2295   1.9703   2.3816   2.6027   3.4223   3.6775   4.2266
     4.4036   4.5185   4.9146   5.1677   5.9816   6.9671   7.9172   9.8060
    10.0729  15.8397

          k =-0.4995 0.1205-0.0973 (  3936 PWs)   bands (ev):

   -72.8801 -42.3068 -41.5211 -41.0022 -10.7166 -10.4728 -10.2565 -10.0098
     1.0799   1.3432   2.2079   2.4501   2.6612   3.1070   3.3979   4.1489
     4.3548   4.4911   4.9008   5.0354   5.9724   7.0953   7.9061   9.5915
    10.0879  16.0875

          k =-0.4997 0.2409 0.1810 (  3933 PWs)   bands (ev):

   -72.8802 -42.3069 -41.5211 -41.0022 -10.6365 -10.4353 -10.2877 -10.0838
     0.7809   1.1124   1.8476   2.2751   2.5801   3.6469   3.8609   4.1965
     4.5399   4.7488   4.8196   5.3275   5.9837   6.8026   7.9261  10.0103
    10.0842  15.6103

          k =-0.4999 0.2413 0.3682 (  3926 PWs)   bands (ev):

   -72.8801 -42.3068 -41.5211 -41.0022 -10.6799 -10.4555 -10.2701 -10.0439
     0.9028   1.2669   1.9642   2.2382   2.8039   3.3412   3.6748   4.2087
     4.4093   4.5194   4.9271   5.1760   5.9798   6.9724   7.9167   9.7946
    10.0857  15.6338

          k =-0.4993 0.2399-0.1936 (  3915 PWs)   bands (ev):

   -72.8801 -42.3068 -41.5211 -41.0022 -10.7190 -10.4675 -10.2612 -10.0079
     1.0958   1.3110   2.1773   2.5377   2.6990   3.0027   3.4705   4.1244
     4.2883   4.4856   4.8793   5.0996   5.9767   7.1006   7.9062   9.6003
    10.0801  16.0467

          k =-0.4995 0.2404-0.0063 (  3927 PWs)   bands (ev):

   -72.8801 -42.3068 -41.5211 -41.0022 -10.6794 -10.4547 -10.2710 -10.0443
     0.9023   1.2671   1.9617   2.2382   2.8031   3.3422   3.6753   4.2123
     4.4114   4.5187   4.9272   5.1747   5.9801   6.9716   7.9160   9.7948
    10.0861  15.6283

          k =-0.5004-0.1173 0.4699 (  3926 PWs)   bands (ev):

   -72.8802 -42.3069 -41.5211 -41.0022 -10.6368 -10.4342 -10.2889 -10.0833
     0.7158   1.2107   1.8390   2.2727   2.5918   3.4948   3.8966   4.2677
     4.5500   4.7584   4.8095   5.3323   5.9853   6.7995   7.9305   9.9944
    10.1091  15.2984

          k =-0.5006-0.1169 0.6572 (  3915 PWs)   bands (ev):

   -72.8801 -42.3068 -41.5211 -41.0022 -10.6807 -10.4528 -10.2726 -10.0432
     0.9198   1.2289   1.9697   2.3798   2.5985   3.4230   3.6786   4.2286
     4.4026   4.5211   4.9147   5.1684   5.9816   6.9680   7.9164   9.8044
    10.0732  15.8448

          k =-0.5000-0.1183 0.0954 (  3930 PWs)   bands (ev):

   -72.8801 -42.3068 -41.5211 -41.0022 -10.7177 -10.4737 -10.2554 -10.0088
     1.0830   1.3429   2.2072   2.4476   2.6589   3.1070   3.3990   4.1466
     4.3554   4.4911   4.9038   5.0354   5.9721   7.0971   7.9059   9.5890
    10.0879  16.0924

     the Fermi energy is     7.0485 ev

!    total energy              =    -520.62076323 Ry
     total all-electron energy =     -3720.874022 Ry
     estimated scf accuracy    <          6.9E-09 Ry
     smearing contrib. (-TS)   =      -0.00492903 Ry
     internal energy E=F+TS    =    -520.61583421 Ry

     The total energy is F=E-TS. E is the sum of the following terms:
     one-electron contribution =    -240.52934118 Ry
     hartree contribution      =     145.34076325 Ry
     xc contribution           =     -61.25023009 Ry
     ewald contribution        =    -185.68095536 Ry
     Hubbard energy            =       0.24474674 Ry
     one-center paw contrib.   =    -178.74081757 Ry

     convergence has been achieved in   8 iterations
     force_hub    :    135.50s CPU     18.77s WALL (       9 calls)
     dndtau       :    119.55s CPU     16.57s WALL (    6804 calls)
     dprojdtau    :     16.73s CPU      2.59s WALL (    6804 calls)
     calc_doverla :     65.38s CPU      8.89s WALL (    6804 calls)
     matel_dSdtau :     88.34s CPU     11.92s WALL (   13608 calls)

     Forces acting on atoms (cartesian axes, Ry/au):

     atom    1 type  1   force =     0.00050875    0.00032523    0.00006229
     atom    2 type  1   force =     0.00007687   -0.00122228    0.00048707
     atom    3 type  3   force =    -0.00028489    0.00042296    0.00047637
     atom    4 type  2   force =    -0.00033639   -0.00005611    0.00045457
     atom    5 type  2   force =     0.00025362   -0.00125943   -0.00069846
     atom    6 type  2   force =     0.00012755    0.00102653   -0.00059798
     atom    7 type  2   force =    -0.00034551    0.00076310   -0.00018387

     Total force =     0.002686     Total SCF correction =     0.000199


     Computing stress (Cartesian axis) and pressure

     stres_hub    :    376.66s CPU     47.52s WALL (       9 calls)
     dprojdepsilo :    306.12s CPU     38.62s WALL (    2916 calls)
     dprojdeps1   :     32.97s CPU      4.23s WALL (    2916 calls)
     dprojdeps2   :    173.59s CPU     21.59s WALL (    2916 calls)
     dprojdeps3   :     99.47s CPU     12.78s WALL (    2916 calls)
          total   stress  (Ry/bohr**3)                   (kbar)     P=        0.04
   0.00000834  -0.00000130   0.00000114            1.23       -0.19        0.17
  -0.00000130   0.00000130   0.00000027           -0.19        0.19        0.04
   0.00000114   0.00000027  -0.00000885            0.17        0.04       -1.30

     Energy error            =      2.6E-05 Ry
     Gradient error          =      1.3E-03 Ry/Bohr
     Cell gradient error     =      1.3E+00 kbar

     number of scf cycles    =   9
     number of bfgs steps    =   8

     enthalpy           old  =    -520.6207373668 Ry
     enthalpy           new  =    -520.6207632350 Ry

     CASE: enthalpy          _new < enthalpy          _old

     new trust radius        =       0.0046683558 bohr
     new conv_thr            =       0.0000000100 Ry

     new unit-cell volume =    487.53067 a.u.^3 (    72.24459 Ang^3 )
     density =      3.85099 g/cm^3

CELL_PARAMETERS (angstrom)
   2.959630544  -0.003353173   0.003352683
   1.493472695   6.180619045  -0.012684449
   2.959463427   3.176776098   3.944319630

ATOMIC_POSITIONS (angstrom)
Mg               3.4393798578        4.7948278722        1.4581424217
Mg               0.4762966971        1.1138852423        0.3371824293
Mn               4.9161720257        2.3294188548        2.5413809597
O                3.4490678739        6.9011672134        1.8199007981
O                4.9168722463        4.3093083277        2.8700078101
O                3.4380831476        2.7939135950        1.3700235718
O                4.9272508011        8.4020742156        3.9027226433



     Writing config-only to output data dir .\out\\qgan.save\ :
     XML data file
     NEW-OLD atomic charge density approx. for the potential
     New effective cutoffs (rho, wfc):  493.52   61.73

     Check: negative core charge=   -0.000002

     Atomic wfc used for Hubbard projectors are orthogonalized


     total cpu time spent up to now is      449.7 secs

     Self-consistent Calculation

     iteration #  1     ecut=    60.00 Ry     beta= 0.70
     Davidson diagonalization with overlap
     ethr =  1.00E-06,  avg # of iterations =  5.0

     =================== HUBBARD OCCUPATIONS ===================
     ------------------------ ATOM    3 ------------------------
     Tr[ns(  3)] =   5.23671
     eigenvalues:
       0.219  0.312  0.399  0.713  0.975
     eigenvectors (columns):
       0.540  0.002  0.206  0.001 -0.816
      -0.001 -0.964 -0.002  0.265 -0.002
      -0.802  0.001  0.420 -0.001 -0.425
       0.255 -0.003  0.884 -0.001  0.392
       0.001 -0.265 -0.001 -0.964 -0.002
     occupation matrix ns (before diag.):
       0.730  0.001  0.278 -0.209  0.000
       0.001  0.340  0.000 -0.001 -0.103
       0.278  0.000  0.387 -0.059  0.001
      -0.209 -0.001 -0.059  0.476 -0.000
       0.000 -0.103  0.001 -0.000  0.685

     Number of occupied Hubbard levels =    5.2367

     Threshold (ethr) on eigenvalues was too large:
     Diagonalizing with lowered threshold

     Davidson diagonalization with overlap
     ethr =  1.24E-08,  avg # of iterations =  6.5

     total cpu time spent up to now is      456.1 secs

     total energy              =    -520.62077319 Ry
     estimated scf accuracy    <       0.00000619 Ry

     iteration #  2     ecut=    60.00 Ry     beta= 0.70
     Davidson diagonalization with overlap
     ethr =  1.44E-08,  avg # of iterations =  4.4

     total cpu time spent up to now is      458.8 secs

     total energy              =    -520.62077217 Ry
     estimated scf accuracy    <       0.00001541 Ry

     iteration #  3     ecut=    60.00 Ry     beta= 0.70
     Davidson diagonalization with overlap
     ethr =  1.44E-08,  avg # of iterations =  2.4

     total cpu time spent up to now is      461.1 secs

     total energy              =    -520.62077464 Ry
     estimated scf accuracy    <       0.00000222 Ry

     iteration #  4     ecut=    60.00 Ry     beta= 0.70
     Davidson diagonalization with overlap
     ethr =  5.16E-09,  avg # of iterations =  4.2

     total cpu time spent up to now is      463.7 secs

     total energy              =    -520.62077501 Ry
     estimated scf accuracy    <       0.00000565 Ry

     iteration #  5     ecut=    60.00 Ry     beta= 0.70
     Davidson diagonalization with overlap
     ethr =  5.16E-09,  avg # of iterations =  2.0

     total cpu time spent up to now is      465.9 secs

     total energy              =    -520.62077562 Ry
     estimated scf accuracy    <       0.00000047 Ry

     iteration #  6     ecut=    60.00 Ry     beta= 0.70
     Davidson diagonalization with overlap
     ethr =  1.09E-09,  avg # of iterations =  2.3

     total cpu time spent up to now is      468.3 secs

     total energy              =    -520.62077570 Ry
     estimated scf accuracy    <       0.00000008 Ry

     iteration #  7     ecut=    60.00 Ry     beta= 0.70
     Davidson diagonalization with overlap
     ethr =  1.78E-10,  avg # of iterations =  5.1

     total cpu time spent up to now is      471.1 secs

     End of self-consistent calculation

     =================== HUBBARD OCCUPATIONS ===================
     ------------------------ ATOM    3 ------------------------
     Tr[ns(  3)] =   5.23660
     eigenvalues:
       0.219  0.312  0.399  0.713  0.975
     eigenvectors (columns):
       0.540  0.002  0.206  0.001 -0.816
      -0.001 -0.964 -0.002  0.265 -0.003
      -0.802  0.001  0.419 -0.001 -0.425
       0.255 -0.003  0.884 -0.001  0.392
       0.001 -0.265 -0.001 -0.964 -0.002
     occupation matrix ns (before diag.):
       0.730  0.002  0.278 -0.209  0.000
       0.002  0.340  0.001 -0.001 -0.103
       0.278  0.001  0.387 -0.059  0.001
      -0.209 -0.001 -0.059  0.476 -0.000
       0.000 -0.103  0.001 -0.000  0.685

     Number of occupied Hubbard levels =    5.2366

          k = 0.0000 0.0000 0.0000 (  3893 PWs)   bands (ev):

   -72.8839 -42.3114 -41.5307 -40.9222 -11.8803 -10.5536 -10.2816 -10.0516
     0.8162   1.5021   2.2339   2.7027   3.0723   3.9297   4.1042   4.3720
     4.6208   5.4161   5.6290   5.6824   6.0625   7.1432   8.0052  10.0767
    10.3480  11.7317

          k =-0.0002 0.0004 0.1873 (  3895 PWs)   bands (ev):

   -72.8839 -42.3115 -41.5307 -40.9222 -11.6848 -10.7087 -10.3493 -10.0910
     1.0116   1.7979   1.9850   3.0741   3.0821   3.8913   4.0250   4.4829
     4.5957   4.9589   5.5769   5.6078   5.7667   7.1004   8.1064   9.7877
    10.3899  12.8474

          k = 0.0004-0.0009-0.3746 (  3896 PWs)   bands (ev):

   -72.8838 -42.3115 -41.5308 -40.9222 -11.3574 -10.9814 -10.4187 -10.1448
     1.2717   1.8229   2.5130   3.0183   3.0704   3.4915   3.8847   4.5434
     4.5730   4.8379   5.4822   5.5289   5.6360   7.0568   8.1884   9.5471
    10.4326  14.4572

          k = 0.0002 0.1194-0.0964 (  3890 PWs)   bands (ev):

   -72.8839 -42.3114 -41.5307 -40.9222 -11.7756 -10.5796 -10.4184 -10.0347
     1.0394   1.5179   2.1930   2.8006   3.1073   3.9509   4.1129   4.3188
     4.6872   5.0213   5.4900   5.6345   6.0688   7.1673   7.9976  10.1400
    10.3881  12.5217

          k = 0.0000 0.1198 0.0910 (  3904 PWs)   bands (ev):

   -72.8839 -42.3115 -41.5307 -40.9222 -11.7285 -10.7909 -10.2426 -10.0458
     0.9483   1.7985   2.1035   2.8976   3.0398   3.8081   3.9299   4.4879
     4.6174   5.2222   5.5859   5.5896   5.8392   7.1374   8.1022   9.7919
    10.3490  12.4964

          k = 0.0007 0.1185-0.4710 (  3922 PWs)   bands (ev):

   -72.8839 -42.3116 -41.5307 -40.9222 -11.4056 -11.0624 -10.3195 -10.0875
     1.3063   1.6510   2.4249   3.0387   3.1619   3.5122   3.9120   4.3388
     4.5910   5.0780   5.4408   5.5059   5.6808   7.0932   8.2045   9.5554
    10.3916  13.8615

          k = 0.0005 0.1190-0.2837 (  3907 PWs)   bands (ev):

   -72.8838 -42.3115 -41.5308 -40.9222 -11.5329 -10.7873 -10.4801 -10.0754
     1.2353   1.7912   2.2191   2.9727   3.1070   3.8330   3.9090   4.4377
     4.5019   4.9013   5.4491   5.5552   5.7756   7.1273   8.1258   9.8647
    10.4299  14.0920

          k =-0.0005-0.2388 0.1927 (  3908 PWs)   bands (ev):

   -72.8839 -42.3114 -41.5308 -40.9222 -11.6423 -10.6750 -10.5104 -10.0211
     1.0200   1.8578   2.3989   2.8287   3.1447   3.6057   3.9760   4.2604
     4.5742   4.9938   5.4791   5.5858   6.0718   7.1915   7.9887  10.2076
    10.4277  13.8351

          k =-0.0007-0.2384 0.3800 (  3904 PWs)   bands (ev):

   -72.8839 -42.3115 -41.5307 -40.9222 -11.5899 -10.8608 -10.3666 -10.0328
     1.3339   1.7525   2.0014   2.9124   3.0706   3.8054   3.9518   4.4412
     4.7409   4.8812   5.4341   5.5374   5.8096   7.1627   8.1314   9.8739
    10.3891  13.4214

          k =-0.0001-0.2397-0.1819 (  3900 PWs)   bands (ev):

   -72.8839 -42.3116 -41.5307 -40.9222 -11.4462 -11.1332 -10.2247 -10.0438
     1.1520   1.8239   2.3086   3.0088   3.0403   3.7158   3.9411   4.1034
     4.6020   5.1831   5.4889   5.5585   5.7294   7.1279   8.1708   9.5429
    10.3505  13.7689

          k = 0.2500-0.0607-0.1387 (  3913 PWs)   bands (ev):

   -72.8810 -42.3084 -41.5251 -40.9616 -11.3224 -10.5807 -10.2121 -10.0306
     1.4049   1.6796   2.1271   2.4360   2.7767   3.0213   3.8425   4.0116
     4.2869   5.0124   5.2981   5.5194   6.1198   6.9845   8.0274   9.6959
    10.1074  13.9394

          k = 0.2498-0.0603 0.0486 (  3893 PWs)   bands (ev):

   -72.8810 -42.3084 -41.5251 -40.9616 -11.4204 -10.4536 -10.2588  -9.9971
     1.4234   1.8163   2.0502   2.4451   2.8283   2.8666   3.7145   3.9974
     4.2927   5.0306   5.3821   5.5684   6.0466   7.0740   7.9559   9.7618
    10.0833  13.5901

          k = 0.2504-0.0616-0.5133 (  3920 PWs)   bands (ev):

   -72.8810 -42.3084 -41.5251 -40.9616 -11.2272 -10.5497 -10.3427 -10.0509
     1.3259   1.6871   2.1996   2.5557   2.6756   3.0128   4.0048   4.1291
     4.3896   4.9223   5.0565   5.4860   6.1627   6.9744   8.0233   9.6508
    10.0380  14.7130

          k = 0.2502-0.0611-0.3260 (  3917 PWs)   bands (ev):

   -72.8810 -42.3084 -41.5251 -40.9616 -11.0445 -10.7602 -10.2923 -10.0902
     1.3389   1.6544   2.0931   2.4475   2.7355   3.3597   3.9227   4.2088
     4.3903   4.8549   5.0021   5.4715   6.1845   6.8978   8.0906   9.8112
     9.8662  15.1038

          k = 0.2502 0.0587-0.2350 (  3919 PWs)   bands (ev):

   -72.8810 -42.3084 -41.5251 -40.9616 -11.2279 -10.5495 -10.3418 -10.0511
     1.3259   1.6877   2.2001   2.5536   2.6761   3.0123   4.0025   4.1289
     4.3911   4.9243   5.0550   5.4865   6.1632   6.9756   8.0228   9.6518
    10.0365  14.7105

          k = 0.2500 0.0592-0.0477 (  3898 PWs)   bands (ev):

   -72.8810 -42.3084 -41.5251 -40.9616 -11.4210 -10.4535 -10.2582  -9.9971
     1.4233   1.8159   2.0504   2.4444   2.8251   2.8699   3.7141   3.9963
     4.2944   5.0281   5.3849   5.5689   6.0456   7.0745   7.9558   9.7618
    10.0834  13.5887

          k = 0.2506 0.0578-0.6096 (  3912 PWs)   bands (ev):

   -72.8810 -42.3084 -41.5251 -40.9616 -11.3224 -10.5801 -10.2127 -10.0307
     1.4038   1.6802   2.1268   2.4349   2.7799   3.0193   3.8432   4.0126
     4.2873   5.0109   5.2971   5.5205   6.1204   6.9845   8.0273   9.6939
    10.1084  13.9418

          k = 0.2504 0.0583-0.4223 (  3914 PWs)   bands (ev):

   -72.8810 -42.3084 -41.5251 -40.9616 -11.0444 -10.7597 -10.2927 -10.0905
     1.3388   1.6541   2.0927   2.4473   2.7356   3.3614   3.9245   4.2081
     4.3880   4.8544   5.0029   5.4722   6.1851   6.8982   8.0900   9.8116
     9.8647  15.1051

          k = 0.2495-0.2995 0.0540 (  3925 PWs)   bands (ev):

   -72.8810 -42.3084 -41.5251 -40.9616 -11.1570 -10.6481 -10.3404 -10.0362
     1.4732   1.8471   2.1070   2.4695   2.6752   3.1231   3.7112   4.0416
     4.3814   4.8967   5.1150   5.5407   6.1561   6.9855   8.0369   9.6662
    10.1191  14.7171

          k = 0.2493-0.2991 0.2413 (  3915 PWs)   bands (ev):

   -72.8810 -42.3084 -41.5251 -40.9616 -11.2884 -10.4719 -10.4030 -10.0011
     1.3882   1.9730   2.2615   2.5120   2.6656   2.8951   3.5559   3.9545
     4.4795   4.9102   5.1614   5.5985   6.1158   7.0901   7.9424   9.7105
    10.0846  14.4998

          k = 0.2499-0.3004-0.3206 (  3912 PWs)   bands (ev):

   -72.8810 -42.3084 -41.5251 -40.9616 -11.2706 -10.6434 -10.2234 -10.0195
     1.6120   1.7854   1.9380   2.5621   2.7909   3.0537   3.5741   3.8903
     4.1573   5.0751   5.3496   5.5793   6.1093   6.9889   8.0380   9.7222
    10.1913  13.8678

          k = 0.2497-0.2999-0.1333 (  3920 PWs)   bands (ev):

   -72.8810 -42.3085 -41.5251 -40.9616 -11.0635 -10.8651 -10.1941 -10.0501
     1.5716   1.7210   1.9723   2.5669   2.7557   3.1067   3.5176   4.1768
     4.2962   4.8416   5.3172   5.5496   6.1566   6.8978   8.1025   9.9093
     9.9492  14.6218

          k = 0.2497-0.1801-0.0423 (  3913 PWs)   bands (ev):

   -72.8810 -42.3084 -41.5251 -40.9616 -11.2697 -10.6440 -10.2239 -10.0195
     1.6123   1.7859   1.9374   2.5654   2.7901   3.0507   3.5741   3.8910
     4.1585   5.0762   5.3461   5.5801   6.1101   6.9887   8.0374   9.7238
    10.1894  13.8679

          k = 0.2495-0.1797 0.1450 (  3921 PWs)   bands (ev):

   -72.8810 -42.3084 -41.5251 -40.9616 -11.2876 -10.4723 -10.4035 -10.0011
     1.3878   1.9726   2.2626   2.5146   2.6653   2.8941   3.5549   3.9551
     4.4788   4.9093   5.1629   5.5979   6.1159   7.0895   7.9424   9.7103
    10.0848  14.5027

          k = 0.2502-0.1810-0.4169 (  3924 PWs)   bands (ev):

   -72.8810 -42.3084 -41.5251 -40.9616 -11.1573 -10.6483 -10.3400 -10.0359
     1.4729   1.8477   2.1065   2.4710   2.6731   3.1250   3.7082   4.0435
     4.3811   4.8977   5.1151   5.5400   6.1547   6.9846   8.0376   9.6656
    10.1215  14.7147

          k = 0.2499-0.1805-0.2296 (  3913 PWs)   bands (ev):

   -72.8810 -42.3085 -41.5251 -40.9616 -11.0634 -10.8657 -10.1937 -10.0500
     1.5723   1.7203   1.9731   2.5681   2.7549   3.1062   3.5156   4.1778
     4.2965   4.8408   5.3194   5.5484   6.1559   6.8974   8.1030   9.9086
     9.9512  14.6215

          k =-0.4999 0.1214 0.2774 (  3924 PWs)   bands (ev):

   -72.8786 -42.3053 -41.5195 -41.0007 -10.6358 -10.4361 -10.2839 -10.0837
     0.7152   1.2110   1.8416   2.2771   2.5956   3.4951   3.8929   4.2665
     4.5454   4.7643   4.8124   5.3337   5.9866   6.8015   7.9340  10.0007
    10.1106  15.3045

          k =-0.5002 0.1218 0.4647 (  3919 PWs)   bands (ev):

   -72.8786 -42.3053 -41.5195 -41.0007 -10.6794 -10.4533 -10.2691 -10.0439
     0.9181   1.2295   1.9718   2.3816   2.6023   3.4234   3.6780   4.2286
     4.4058   4.5203   4.9177   5.1697   5.9832   6.9688   7.9190   9.8102
    10.0753  15.8405

          k =-0.4995 0.1205-0.0973 (  3936 PWs)   bands (ev):

   -72.8786 -42.3053 -41.5195 -41.0007 -10.7160 -10.4733 -10.2529 -10.0097
     1.0800   1.3432   2.2098   2.4514   2.6594   3.1087   3.3966   4.1541
     4.3545   4.4921   4.9039   5.0386   5.9740   7.0970   7.9077   9.5957
    10.0903  16.0889

          k =-0.4997 0.2408 0.1810 (  3933 PWs)   bands (ev):

   -72.8786 -42.3053 -41.5195 -41.0007 -10.6357 -10.4365 -10.2834 -10.0839
     0.7815   1.1122   1.8486   2.2758   2.5799   3.6482   3.8619   4.1991
     4.5387   4.7524   4.8234   5.3283   5.9853   6.8047   7.9281  10.0139
    10.0871  15.6101

          k =-0.4999 0.2412 0.3683 (  3926 PWs)   bands (ev):

   -72.8786 -42.3053 -41.5195 -41.0007 -10.6792 -10.4561 -10.2664 -10.0440
     0.9031   1.2667   1.9657   2.2384   2.8035   3.3426   3.6751   4.2119
     4.4106   4.5211   4.9302   5.1781   5.9814   6.9740   7.9185   9.7988
    10.0882  15.6354

          k =-0.4993 0.2399-0.1936 (  3915 PWs)   bands (ev):

   -72.8786 -42.3053 -41.5195 -41.0007 -10.7183 -10.4679 -10.2577 -10.0078
     1.0955   1.3113   2.1789   2.5385   2.6978   3.0049   3.4686   4.1291
     4.2895   4.4864   4.8821   5.1025   5.9783   7.1021   7.9078   9.6047
    10.0825  16.0475

          k =-0.4995 0.2403-0.0063 (  3927 PWs)   bands (ev):

   -72.8786 -42.3053 -41.5195 -41.0007 -10.6788 -10.4555 -10.2671 -10.0444
     0.9028   1.2667   1.9635   2.2384   2.8030   3.3434   3.6756   4.2146
     4.4126   4.5206   4.9301   5.1769   5.9817   6.9733   7.9179   9.7989
    10.0885  15.6303

          k =-0.5004-0.1174 0.4701 (  3926 PWs)   bands (ev):

   -72.8786 -42.3053 -41.5195 -41.0007 -10.6360 -10.4355 -10.2844 -10.0834
     0.7163   1.2104   1.8402   2.2738   2.5915   3.4965   3.8978   4.2695
     4.5480   4.7631   4.8128   5.3331   5.9868   6.8016   7.9326   9.9979
    10.1121  15.2997

          k =-0.5006-0.1170 0.6574 (  3915 PWs)   bands (ev):

   -72.8786 -42.3053 -41.5195 -41.0007 -10.6800 -10.4534 -10.2688 -10.0433
     0.9199   1.2289   1.9712   2.3800   2.5986   3.4241   3.6791   4.2302
     4.4050   4.5226   4.9177   5.1704   5.9831   6.9696   7.9183   9.8087
    10.0755  15.8446

          k =-0.5000-0.1183 0.0954 (  3930 PWs)   bands (ev):

   -72.8786 -42.3053 -41.5195 -41.0007 -10.7170 -10.4739 -10.2520 -10.0088
     1.0828   1.3428   2.2092   2.4495   2.6570   3.1090   3.3974   4.1522
     4.3549   4.4921   4.9064   5.0388   5.9738   7.0985   7.9075   9.5935
    10.0904  16.0935

     the Fermi energy is     7.0500 ev

!    total energy              =    -520.62077574 Ry
     total all-electron energy =     -3720.874034 Ry
     estimated scf accuracy    <          8.5E-09 Ry
     smearing contrib. (-TS)   =      -0.00493263 Ry
     internal energy E=F+TS    =    -520.61584311 Ry

     The total energy is F=E-TS. E is the sum of the following terms:
     one-electron contribution =    -240.57816701 Ry
     hartree contribution      =     145.36746068 Ry
     xc contribution           =     -61.25085823 Ry
     ewald contribution        =    -185.65820451 Ry
     Hubbard energy            =       0.24478826 Ry
     one-center paw contrib.   =    -178.74086231 Ry

     convergence has been achieved in   7 iterations
     force_hub    :    150.22s CPU     20.83s WALL (      10 calls)
     dndtau       :    132.33s CPU     18.40s WALL (    7560 calls)
     dprojdtau    :     18.36s CPU      2.86s WALL (    7560 calls)
     calc_doverla :     71.77s CPU      9.83s WALL (    7560 calls)
     matel_dSdtau :     97.86s CPU     13.22s WALL (   15120 calls)

     Forces acting on atoms (cartesian axes, Ry/au):

     atom    1 type  1   force =     0.00041312   -0.00017906    0.00019852
     atom    2 type  1   force =     0.00004348   -0.00054608   -0.00007198
     atom    3 type  3   force =    -0.00017608    0.00070522   -0.00000498
     atom    4 type  2   force =    -0.00031553   -0.00008429    0.00037951
     atom    5 type  2   force =     0.00023442   -0.00077187    0.00026034
     atom    6 type  2   force =     0.00006266    0.00038250   -0.00081773
     atom    7 type  2   force =    -0.00026207    0.00049357    0.00005631

     Total force =     0.001783     Total SCF correction =     0.000244
     SCF correction compared to forces is large: reduce conv_thr to get better values


     Computing stress (Cartesian axis) and pressure

     stres_hub    :    415.59s CPU     52.99s WALL (      10 calls)
     dprojdepsilo :    339.69s CPU     43.10s WALL (    3240 calls)
     dprojdeps1   :     34.75s CPU      4.71s WALL (    3240 calls)
     dprojdeps2   :    194.89s CPU     24.10s WALL (    3240 calls)
     dprojdeps3   :    109.95s CPU     14.27s WALL (    3240 calls)
          total   stress  (Ry/bohr**3)                   (kbar)     P=        0.18
   0.00000937  -0.00000130   0.00000092            1.38       -0.19        0.14
  -0.00000130   0.00000336  -0.00000022           -0.19        0.49       -0.03
   0.00000092  -0.00000022  -0.00000902            0.14       -0.03       -1.33

     Energy error            =      1.3E-05 Ry
     Gradient error          =      8.2E-04 Ry/Bohr
     Cell gradient error     =      1.4E+00 kbar

     number of scf cycles    =  10
     number of bfgs steps    =   9

     enthalpy           old  =    -520.6207632350 Ry
     enthalpy           new  =    -520.6207757359 Ry

     CASE: enthalpy          _new < enthalpy          _old

     new trust radius        =       0.0034913062 bohr
     new conv_thr            =       0.0000000100 Ry

     new unit-cell volume =    487.48068 a.u.^3 (    72.23718 Ang^3 )
     density =      3.85139 g/cm^3

CELL_PARAMETERS (angstrom)
   2.960356008  -0.003667566   0.003621568
   1.493173432   6.181166130  -0.012120852
   2.960208253   3.177105158   3.942986162

ATOMIC_POSITIONS (angstrom)
Mg               3.4406046672        4.7956716124        1.4579841330
Mg               0.4764317549        1.1126358282        0.3382290658
Mn               4.9170164626        2.3300446068        2.5406810661
O                3.4488326048        6.9017529457        1.8206300861
O                4.9182379274        4.3079035658        2.8685379723
O                3.4388814086        2.7946104806        1.3691109179
O                4.9273963844        8.4037808259        3.9020131785



     Writing config-only to output data dir .\out\\qgan.save\ :
     XML data file
     NEW-OLD atomic charge density approx. for the potential
     New effective cutoffs (rho, wfc):  493.86   61.77

     Check: negative core charge=   -0.000002

     Atomic wfc used for Hubbard projectors are orthogonalized


     total cpu time spent up to now is      481.6 secs

     Self-consistent Calculation

     iteration #  1     ecut=    60.00 Ry     beta= 0.70
     Davidson diagonalization with overlap
     ethr =  1.00E-06,  avg # of iterations =  5.1

     =================== HUBBARD OCCUPATIONS ===================
     ------------------------ ATOM    3 ------------------------
     Tr[ns(  3)] =   5.23736
     eigenvalues:
       0.219  0.312  0.399  0.713  0.975
     eigenvectors (columns):
       0.540  0.002  0.207  0.001 -0.816
      -0.001 -0.964 -0.002  0.265 -0.003
      -0.803  0.001  0.419 -0.001 -0.425
       0.254 -0.003  0.884 -0.001  0.392
       0.001 -0.265 -0.002 -0.964 -0.002
     occupation matrix ns (before diag.):
       0.731  0.002  0.278 -0.209  0.000
       0.002  0.340  0.001 -0.001 -0.103
       0.278  0.001  0.387 -0.059  0.001
      -0.209 -0.001 -0.059  0.476 -0.000
       0.000 -0.103  0.001 -0.000  0.685

     Number of occupied Hubbard levels =    5.2374

     Threshold (ethr) on eigenvalues was too large:
     Diagonalizing with lowered threshold

     Davidson diagonalization with overlap
     ethr =  1.06E-08,  avg # of iterations =  6.0

     total cpu time spent up to now is      488.2 secs

     total energy              =    -520.62078255 Ry
     estimated scf accuracy    <       0.00000524 Ry

     iteration #  2     ecut=    60.00 Ry     beta= 0.70
     Davidson diagonalization with overlap
     ethr =  1.22E-08,  avg # of iterations =  2.6

     total cpu time spent up to now is      490.6 secs

     total energy              =    -520.62078028 Ry
     estimated scf accuracy    <       0.00002031 Ry

     iteration #  3     ecut=    60.00 Ry     beta= 0.70
     Davidson diagonalization with overlap
     ethr =  1.22E-08,  avg # of iterations =  2.0

     total cpu time spent up to now is      493.0 secs

     total energy              =    -520.62078287 Ry
     estimated scf accuracy    <       0.00001014 Ry

     iteration #  4     ecut=    60.00 Ry     beta= 0.70
     Davidson diagonalization with overlap
     ethr =  1.22E-08,  avg # of iterations =  1.6

     total cpu time spent up to now is      495.2 secs

     total energy              =    -520.62078415 Ry
     estimated scf accuracy    <       0.00000116 Ry

     iteration #  5     ecut=    60.00 Ry     beta= 0.70
     Davidson diagonalization with overlap
     ethr =  2.70E-09,  avg # of iterations =  2.0

     total cpu time spent up to now is      497.4 secs

     total energy              =    -520.62078437 Ry
     estimated scf accuracy    <       0.00000016 Ry

     iteration #  6     ecut=    60.00 Ry     beta= 0.70
     Davidson diagonalization with overlap
     ethr =  3.73E-10,  avg # of iterations =  6.1

     total cpu time spent up to now is      500.4 secs

     total energy              =    -520.62078448 Ry
     estimated scf accuracy    <       0.00000005 Ry

     iteration #  7     ecut=    60.00 Ry     beta= 0.70
     Davidson diagonalization with overlap
     ethr =  1.09E-10,  avg # of iterations =  8.5

     total cpu time spent up to now is      503.6 secs

     total energy              =    -520.62078452 Ry
     estimated scf accuracy    <       0.00000002 Ry

     iteration #  8     ecut=    60.00 Ry     beta= 0.70
     Davidson diagonalization with overlap
     ethr =  5.60E-11,  avg # of iterations =  4.5

     total cpu time spent up to now is      506.2 secs

     total energy              =    -520.62078453 Ry
     estimated scf accuracy    <       0.00000001 Ry

     iteration #  9     ecut=    60.00 Ry     beta= 0.70
     Davidson diagonalization with overlap
     ethr =  2.79E-11,  avg # of iterations =  3.4

     total cpu time spent up to now is      508.6 secs

     End of self-consistent calculation

     =================== HUBBARD OCCUPATIONS ===================
     ------------------------ ATOM    3 ------------------------
     Tr[ns(  3)] =   5.23657
     eigenvalues:
       0.219  0.312  0.399  0.713  0.975
     eigenvectors (columns):
       0.539  0.002  0.207  0.001 -0.817
      -0.001 -0.964 -0.002  0.265 -0.003
      -0.803  0.001  0.419 -0.001 -0.424
       0.254 -0.003  0.884 -0.001  0.392
       0.000 -0.265 -0.002 -0.964 -0.002
     occupation matrix ns (before diag.):
       0.731  0.002  0.277 -0.209  0.001
       0.002  0.340  0.001 -0.001 -0.103
       0.277  0.001  0.387 -0.059  0.001
      -0.209 -0.001 -0.059  0.476 -0.000
       0.001 -0.103  0.001 -0.000  0.685

     Number of occupied Hubbard levels =    5.2366

          k = 0.0000 0.0000 0.0000 (  3893 PWs)   bands (ev):

   -72.8832 -42.3105 -41.5301 -40.9216 -11.8799 -10.5525 -10.2807 -10.0498
     0.8166   1.5027   2.2366   2.7027   3.0730   3.9270   4.1052   4.3706
     4.6227   5.4194   5.6295   5.6835   6.0648   7.1438   8.0054  10.0797
    10.3484  11.7340

          k =-0.0002 0.0004 0.1874 (  3895 PWs)   bands (ev):

   -72.8832 -42.3106 -41.5301 -40.9216 -11.6840 -10.7078 -10.3493 -10.0888
     1.0127   1.7996   1.9855   3.0748   3.0829   3.8886   4.0258   4.4818
     4.5979   4.9616   5.5777   5.6085   5.7679   7.1011   8.1071   9.7904
    10.3903  12.8500

          k = 0.0005-0.0008-0.3748 (  3896 PWs)   bands (ev):

   -72.8831 -42.3106 -41.5302 -40.9216 -11.3553 -10.9816 -10.4193 -10.1422
     1.2720   1.8256   2.5164   3.0196   3.0710   3.4896   3.8821   4.5462
     4.5721   4.8379   5.4848   5.5292   5.6366   7.0575   8.1895   9.5494
    10.4330  14.4605

          k = 0.0003 0.1194-0.0964 (  3890 PWs)   bands (ev):

   -72.8832 -42.3105 -41.5301 -40.9216 -11.7750 -10.5786 -10.4178 -10.0330
     1.0404   1.5188   2.1949   2.7999   3.1080   3.9481   4.1153   4.3176
     4.6897   5.0225   5.4918   5.6355   6.0699   7.1680   7.9981  10.1433
    10.3885  12.5238

          k = 0.0000 0.1198 0.0910 (  3904 PWs)   bands (ev):

   -72.8832 -42.3106 -41.5301 -40.9216 -11.7280 -10.7895 -10.2424 -10.0437
     0.9493   1.7991   2.1066   2.8972   3.0405   3.8092   3.9272   4.4869
     4.6180   5.2246   5.5869   5.5901   5.8418   7.1382   8.1028   9.7950
    10.3494  12.4986

          k = 0.0007 0.1185-0.4712 (  3922 PWs)   bands (ev):

   -72.8832 -42.3106 -41.5301 -40.9216 -11.4045 -11.0617 -10.3199 -10.0851
     1.3075   1.6527   2.4285   3.0393   3.1610   3.5127   3.9094   4.3384
     4.5902   5.0804   5.4430   5.5062   5.6816   7.0940   8.2055   9.5583
    10.3920  13.8634

          k = 0.0005 0.1190-0.2838 (  3907 PWs)   bands (ev):

   -72.8831 -42.3106 -41.5302 -40.9216 -11.5316 -10.7869 -10.4799 -10.0735
     1.2367   1.7925   2.2206   2.9732   3.1077   3.8341   3.9062   4.4367
     4.5040   4.9023   5.4516   5.5558   5.7758   7.1281   8.1267   9.8675
    10.4302  14.0942

          k =-0.0005-0.2388 0.1928 (  3908 PWs)   bands (ev):

   -72.8832 -42.3105 -41.5302 -40.9216 -11.6412 -10.6746 -10.5095 -10.0194
     1.0211   1.8598   2.4009   2.8269   3.1456   3.6067   3.9728   4.2595
     4.5780   4.9955   5.4813   5.5867   6.0720   7.1924   7.9893  10.2111
    10.4280  13.8367

          k =-0.0008-0.2384 0.3802 (  3904 PWs)   bands (ev):

   -72.8832 -42.3106 -41.5301 -40.9216 -11.5892 -10.8596 -10.3664 -10.0310
     1.3358   1.7529   2.0040   2.9117   3.0713   3.8075   3.9490   4.4403
     4.7404   4.8836   5.4365   5.5380   5.8105   7.1636   8.1323   9.8773
    10.3895  13.4234

          k =-0.0001-0.2396-0.1820 (  3900 PWs)   bands (ev):

   -72.8832 -42.3106 -41.5301 -40.9216 -11.4459 -11.1316 -10.2250 -10.0414
     1.1535   1.8255   2.3121   3.0094   3.0399   3.7158   3.9384   4.1025
     4.6012   5.1845   5.4893   5.5598   5.7323   7.1288   8.1717   9.5465
    10.3508  13.7695

          k = 0.2499-0.0606-0.1388 (  3913 PWs)   bands (ev):

   -72.8803 -42.3075 -41.5245 -40.9609 -11.3218 -10.5799 -10.2109 -10.0303
     1.4048   1.6796   2.1282   2.4365   2.7790   3.0204   3.8428   4.0129
     4.2872   5.0133   5.3014   5.5205   6.1213   6.9856   8.0280   9.6972
    10.1093  13.9414

          k = 0.2497-0.0602 0.0486 (  3893 PWs)   bands (ev):

   -72.8803 -42.3075 -41.5245 -40.9609 -11.4201 -10.4528 -10.2572  -9.9969
     1.4232   1.8175   2.0492   2.4466   2.8284   2.8681   3.7149   3.9976
     4.2936   5.0311   5.3855   5.5704   6.0480   7.0751   7.9562   9.7633
    10.0852  13.5916

          k = 0.2504-0.0615-0.5136 (  3920 PWs)   bands (ev):

   -72.8803 -42.3075 -41.5245 -40.9609 -11.2263 -10.5493 -10.3420 -10.0502
     1.3255   1.6872   2.2020   2.5564   2.6762   3.0125   4.0056   4.1284
     4.3918   4.9253   5.0567   5.4876   6.1641   6.9752   8.0241   9.6525
    10.0398  14.7141

          k = 0.2501-0.0611-0.3262 (  3917 PWs)   bands (ev):

   -72.8803 -42.3075 -41.5245 -40.9609 -11.0424 -10.7608 -10.2921 -10.0892
     1.3380   1.6547   2.0955   2.4488   2.7355   3.3608   3.9238   4.2085
     4.3911   4.8574   5.0021   5.4732   6.1858   6.8987   8.0916   9.8142
     9.8667  15.1035

          k = 0.2502 0.0588-0.2352 (  3919 PWs)   bands (ev):

   -72.8803 -42.3075 -41.5245 -40.9609 -11.2268 -10.5492 -10.3413 -10.0504
     1.3257   1.6876   2.2024   2.5543   2.6767   3.0123   4.0038   4.1282
     4.3929   4.9271   5.0555   5.4879   6.1644   6.9764   8.0236   9.6533
    10.0386  14.7120

          k = 0.2500 0.0592-0.0478 (  3898 PWs)   bands (ev):

   -72.8803 -42.3075 -41.5245 -40.9609 -11.4206 -10.4528 -10.2567  -9.9969
     1.4232   1.8171   2.0493   2.4461   2.8257   2.8708   3.7147   3.9966
     4.2950   5.0291   5.3879   5.5708   6.0471   7.0755   7.9561   9.7632
    10.0853  13.5906

          k = 0.2506 0.0579-0.6100 (  3912 PWs)   bands (ev):

   -72.8803 -42.3075 -41.5245 -40.9609 -11.3219 -10.5794 -10.2114 -10.0303
     1.4039   1.6802   2.1279   2.4356   2.7819   3.0187   3.8433   4.0138
     4.2875   5.0121   5.3004   5.5215   6.1219   6.9855   8.0280   9.6957
    10.1100  13.9433

          k = 0.2504 0.0583-0.4226 (  3914 PWs)   bands (ev):

   -72.8803 -42.3075 -41.5245 -40.9609 -11.0424 -10.7603 -10.2924 -10.0895
     1.3379   1.6545   2.0952   2.4487   2.7355   3.3621   3.9255   4.2078
     4.3893   4.8569   5.0026   5.4738   6.1863   6.8991   8.0910   9.8145
     9.8655  15.1045

          k = 0.2494-0.2994 0.0540 (  3925 PWs)   bands (ev):

   -72.8803 -42.3075 -41.5245 -40.9609 -11.1559 -10.6476 -10.3399 -10.0354
     1.4732   1.8473   2.1094   2.4695   2.6761   3.1234   3.7109   4.0423
     4.3831   4.8988   5.1154   5.5421   6.1573   6.9864   8.0377   9.6679
    10.1217  14.7178

          k = 0.2492-0.2990 0.2414 (  3915 PWs)   bands (ev):

   -72.8803 -42.3075 -41.5245 -40.9609 -11.2875 -10.4709 -10.4026 -10.0004
     1.3881   1.9742   2.2634   2.5122   2.6666   2.8945   3.5547   3.9550
     4.4822   4.9127   5.1620   5.6000   6.1173   7.0910   7.9430   9.7118
    10.0872  14.5015

          k = 0.2498-0.3003-0.3207 (  3912 PWs)   bands (ev):

   -72.8803 -42.3075 -41.5245 -40.9609 -11.2700 -10.6425 -10.2225 -10.0190
     1.6122   1.7864   1.9377   2.5648   2.7914   3.0531   3.5740   3.8912
     4.1580   5.0755   5.3526   5.5806   6.1110   6.9898   8.0387   9.7242
    10.1931  13.8695

          k = 0.2496-0.2999-0.1334 (  3920 PWs)   bands (ev):

   -72.8803 -42.3075 -41.5245 -40.9609 -11.0624 -10.8648 -10.1933 -10.0494
     1.5719   1.7209   1.9738   2.5686   2.7564   3.1070   3.5177   4.1763
     4.2966   4.8432   5.3200   5.5502   6.1582   6.8989   8.1035   9.9122
     9.9503  14.6213

          k = 0.2497-0.1800-0.0424 (  3913 PWs)   bands (ev):

   -72.8803 -42.3075 -41.5245 -40.9609 -11.2693 -10.6430 -10.2229 -10.0190
     1.6126   1.7867   1.9374   2.5675   2.7906   3.0505   3.5740   3.8916
     4.1592   5.0762   5.3498   5.5812   6.1116   6.9898   8.0381   9.7253
    10.1918  13.8695

          k = 0.2494-0.1796 0.1450 (  3921 PWs)   bands (ev):

   -72.8803 -42.3075 -41.5245 -40.9609 -11.2869 -10.4713 -10.4030 -10.0004
     1.3877   1.9739   2.2642   2.5145   2.6663   2.8937   3.5538   3.9555
     4.4817   4.9119   5.1632   5.5995   6.1174   7.0905   7.9431   9.7116
    10.0874  14.5037

          k = 0.2501-0.1809-0.4172 (  3924 PWs)   bands (ev):

   -72.8803 -42.3075 -41.5245 -40.9609 -11.1562 -10.6478 -10.3396 -10.0351
     1.4727   1.8478   2.1091   2.4708   2.6746   3.1248   3.7085   4.0439
     4.3826   4.8998   5.1156   5.5415   6.1563   6.9855   8.0385   9.6675
    10.1234  14.7161

          k = 0.2499-0.1805-0.2298 (  3913 PWs)   bands (ev):

   -72.8803 -42.3075 -41.5245 -40.9609 -11.0623 -10.8653 -10.1930 -10.0493
     1.5724   1.7203   1.9745   2.5694   2.7559   3.1067   3.5160   4.1774
     4.2966   4.8426   5.3219   5.5492   6.1576   6.8985   8.1039   9.9117
     9.9518  14.6210

          k =-0.4998 0.1213 0.2775 (  3924 PWs)   bands (ev):

   -72.8779 -42.3045 -41.5189 -40.9999 -10.6342 -10.4368 -10.2803 -10.0867
     0.7151   1.2116   1.8427   2.2772   2.5943   3.4978   3.8957   4.2686
     4.5436   4.7679   4.8147   5.3348   5.9855   6.8026   7.9350  10.0027
    10.1121  15.3057

          k =-0.5001 0.1217 0.4649 (  3919 PWs)   bands (ev):

   -72.8779 -42.3044 -41.5189 -40.9999 -10.6784 -10.4537 -10.2657 -10.0464
     0.9180   1.2304   1.9733   2.3814   2.6019   3.4251   3.6792   4.2303
     4.4072   4.5218   4.9202   5.1712   5.9822   6.9700   7.9198   9.8141
    10.0749  15.8421

          k =-0.4994 0.1204-0.0973 (  3936 PWs)   bands (ev):

   -72.8779 -42.3044 -41.5189 -40.9999 -10.7153 -10.4736 -10.2495 -10.0119
     1.0803   1.3438   2.2123   2.4522   2.6575   3.1096   3.3968   4.1582
     4.3541   4.4932   4.9057   5.0414   5.9731   7.0982   7.9084   9.5994
    10.0899  16.0910

          k =-0.4996 0.2407 0.1811 (  3933 PWs)   bands (ev):

   -72.8779 -42.3045 -41.5189 -40.9999 -10.6342 -10.4372 -10.2797 -10.0869
     0.7813   1.1128   1.8498   2.2761   2.5798   3.6507   3.8631   4.2013
     4.5373   4.7554   4.8258   5.3297   5.9842   6.8059   7.9292  10.0164
    10.0880  15.6108

          k =-0.4998 0.2411 0.3685 (  3926 PWs)   bands (ev):

   -72.8779 -42.3044 -41.5189 -40.9999 -10.6781 -10.4563 -10.2631 -10.0466
     0.9030   1.2673   1.9670   2.2384   2.8034   3.3442   3.6760   4.2144
     4.4116   4.5225   4.9325   5.1796   5.9804   6.9751   7.9193   9.8026
    10.0881  15.6369

          k =-0.4991 0.2398-0.1937 (  3915 PWs)   bands (ev):

   -72.8779 -42.3044 -41.5189 -40.9999 -10.7176 -10.4680 -10.2545 -10.0100
     1.0954   1.3122   2.1809   2.5390   2.6967   3.0064   3.4682   4.1331
     4.2898   4.4872   4.8843   5.1047   5.9774   7.1032   7.9085   9.6087
    10.0820  16.0487

          k =-0.4993 0.2403-0.0063 (  3927 PWs)   bands (ev):

   -72.8779 -42.3044 -41.5189 -40.9999 -10.6777 -10.4559 -10.2636 -10.0469
     0.9029   1.2671   1.9652   2.2384   2.8032   3.3449   3.6766   4.2162
     4.4133   4.5224   4.9323   5.1786   5.9807   6.9746   7.9189   9.8026
    10.0882  15.6325

          k =-0.5004-0.1175 0.4703 (  3926 PWs)   bands (ev):

   -72.8779 -42.3045 -41.5189 -40.9999 -10.6344 -10.4363 -10.2806 -10.0865
     0.7163   1.2108   1.8415   2.2749   2.5910   3.4990   3.8995   4.2709
     4.5457   4.7671   4.8150   5.3343   5.9858   6.8028   7.9339  10.0005
    10.1132  15.3015

          k =-0.5006-0.1171 0.6577 (  3915 PWs)   bands (ev):

   -72.8779 -42.3044 -41.5189 -40.9999 -10.6789 -10.4537 -10.2655 -10.0459
     0.9196   1.2298   1.9727   2.3801   2.5989   3.4257   3.6803   4.2313
     4.4067   4.5237   4.9203   5.1718   5.9821   6.9707   7.9192   9.8128
    10.0751  15.8451

          k =-0.4999-0.1183 0.0955 (  3930 PWs)   bands (ev):

   -72.8779 -42.3044 -41.5189 -40.9999 -10.7162 -10.4740 -10.2489 -10.0111
     1.0826   1.3435   2.2118   2.4507   2.6553   3.1100   3.3973   4.1568
     4.3542   4.4933   4.9077   5.0418   5.9728   7.0995   7.9082   9.5977
    10.0900  16.0952

     the Fermi energy is     7.0510 ev

!    total energy              =    -520.62078454 Ry
     total all-electron energy =     -3720.874043 Ry
     estimated scf accuracy    <          8.8E-09 Ry
     smearing contrib. (-TS)   =      -0.00493427 Ry
     internal energy E=F+TS    =    -520.61585028 Ry

     The total energy is F=E-TS. E is the sum of the following terms:
     one-electron contribution =    -240.58120484 Ry
     hartree contribution      =     145.37081431 Ry
     xc contribution           =     -61.25121983 Ry
     ewald contribution        =    -185.65814953 Ry
     Hubbard energy            =       0.24482117 Ry
     one-center paw contrib.   =    -178.74091156 Ry

     convergence has been achieved in   9 iterations
     force_hub    :    165.41s CPU     22.89s WALL (      11 calls)
     dndtau       :    145.70s CPU     20.21s WALL (    8316 calls)
     dprojdtau    :     20.31s CPU      3.18s WALL (    8316 calls)
     calc_doverla :     79.62s CPU     10.79s WALL (    8316 calls)
     matel_dSdtau :    106.67s CPU     14.48s WALL (   16632 calls)

     Forces acting on atoms (cartesian axes, Ry/au):

     atom    1 type  1   force =     0.00029773   -0.00039744    0.00016995
     atom    2 type  1   force =     0.00002400   -0.00007462   -0.00017665
     atom    3 type  3   force =    -0.00008559    0.00074929   -0.00025895
     atom    4 type  2   force =    -0.00026491   -0.00002099    0.00030055
     atom    5 type  2   force =     0.00019097   -0.00027649    0.00074725
     atom    6 type  2   force =     0.00000318   -0.00016820   -0.00096575
     atom    7 type  2   force =    -0.00016537    0.00018846    0.00018359

     Total force =     0.001685     Total SCF correction =     0.000044


     Computing stress (Cartesian axis) and pressure

     stres_hub    :    457.72s CPU     58.35s WALL (      11 calls)
     dprojdepsilo :    374.06s CPU     47.47s WALL (    3564 calls)
     dprojdeps1   :     37.73s CPU      5.17s WALL (    3564 calls)
     dprojdeps2   :    216.39s CPU     26.60s WALL (    3564 calls)
     dprojdeps3   :    119.84s CPU     15.68s WALL (    3564 calls)
          total   stress  (Ry/bohr**3)                   (kbar)     P=        0.48
   0.00000753  -0.00000124   0.00000067            1.11       -0.18        0.10
  -0.00000124   0.00000636  -0.00000074           -0.18        0.94       -0.11
   0.00000067  -0.00000074  -0.00000408            0.10       -0.11       -0.60

     Energy error            =      8.8E-06 Ry
     Gradient error          =      9.7E-04 Ry/Bohr
     Cell gradient error     =      1.1E+00 kbar

     number of scf cycles    =  11
     number of bfgs steps    =  10

     enthalpy           old  =    -520.6207757359 Ry
     enthalpy           new  =    -520.6207845445 Ry

     CASE: enthalpy          _new < enthalpy          _old

     new trust radius        =       0.0033107025 bohr
     new conv_thr            =       0.0000000100 Ry

     new unit-cell volume =    487.56231 a.u.^3 (    72.24928 Ang^3 )
     density =      3.85074 g/cm^3

CELL_PARAMETERS (angstrom)
   2.961634179  -0.004101036   0.003954278
   1.492900108   6.182843719  -0.011723114
   2.961460592   3.177806000   3.941185870

ATOMIC_POSITIONS (angstrom)
Mg               3.4425396680        4.7966779329        1.4573706004
Mg               0.4766093078        1.1118551811        0.3387817528
Mn               4.9186869960        2.3311250704        2.5396282469
O                3.4488047647        6.9036022749        1.8215269364
O                4.9205390817        4.3069937153        2.8671921980
O                3.4402322641        2.7953555637        1.3674352374
O                4.9280950773        8.4070316869        3.9010884038



     Writing config-only to output data dir .\out\\qgan.save\ :
     XML data file
     NEW-OLD atomic charge density approx. for the potential
     New effective cutoffs (rho, wfc):  494.30   61.83

     Check: negative core charge=   -0.000002

     Atomic wfc used for Hubbard projectors are orthogonalized


     total cpu time spent up to now is      519.0 secs

     Self-consistent Calculation

     iteration #  1     ecut=    60.00 Ry     beta= 0.70
     Davidson diagonalization with overlap
     ethr =  1.00E-06,  avg # of iterations =  5.9

     =================== HUBBARD OCCUPATIONS ===================
     ------------------------ ATOM    3 ------------------------
     Tr[ns(  3)] =   5.23682
     eigenvalues:
       0.219  0.312  0.399  0.713  0.975
     eigenvectors (columns):
       0.538  0.002  0.207  0.001 -0.817
      -0.001 -0.964 -0.002  0.265 -0.003
      -0.804  0.001  0.418 -0.001 -0.424
       0.253 -0.004  0.884 -0.002  0.392
       0.000 -0.265 -0.002 -0.964 -0.002
     occupation matrix ns (before diag.):
       0.731  0.002  0.277 -0.209  0.001
       0.002  0.340  0.001 -0.001 -0.103
       0.277  0.001  0.386 -0.059  0.001
      -0.209 -0.001 -0.059  0.476 -0.000
       0.001 -0.103  0.001 -0.000  0.685

     Number of occupied Hubbard levels =    5.2368

     Threshold (ethr) on eigenvalues was too large:
     Diagonalizing with lowered threshold

     Davidson diagonalization with overlap
     ethr =  1.29E-08,  avg # of iterations =  5.7

     total cpu time spent up to now is      526.0 secs

     total energy              =    -520.62078995 Ry
     estimated scf accuracy    <       0.00000653 Ry

     iteration #  2     ecut=    60.00 Ry     beta= 0.70
     Davidson diagonalization with overlap
     ethr =  1.52E-08,  avg # of iterations =  2.0

     total cpu time spent up to now is      528.4 secs

     total energy              =    -520.62078923 Ry
     estimated scf accuracy    <       0.00000634 Ry

     iteration #  3     ecut=    60.00 Ry     beta= 0.70
     Davidson diagonalization with overlap
     ethr =  1.47E-08,  avg # of iterations =  2.0

     total cpu time spent up to now is      530.7 secs

     total energy              =    -520.62078951 Ry
     estimated scf accuracy    <       0.00001374 Ry

     iteration #  4     ecut=    60.00 Ry     beta= 0.70
     Davidson diagonalization with overlap
     ethr =  1.47E-08,  avg # of iterations =  2.0

     total cpu time spent up to now is      533.0 secs

     total energy              =    -520.62079116 Ry
     estimated scf accuracy    <       0.00000377 Ry

     iteration #  5     ecut=    60.00 Ry     beta= 0.70
     Davidson diagonalization with overlap
     ethr =  8.77E-09,  avg # of iterations =  1.1

     total cpu time spent up to now is      535.1 secs

     total energy              =    -520.62079161 Ry
     estimated scf accuracy    <       0.00000015 Ry

     iteration #  6     ecut=    60.00 Ry     beta= 0.70
     Davidson diagonalization with overlap
     ethr =  3.49E-10,  avg # of iterations =  8.1

     total cpu time spent up to now is      538.6 secs

     total energy              =    -520.62079180 Ry
     estimated scf accuracy    <       0.00000012 Ry

     iteration #  7     ecut=    60.00 Ry     beta= 0.70
     Davidson diagonalization with overlap
     ethr =  2.77E-10,  avg # of iterations =  2.1

     total cpu time spent up to now is      540.8 secs

     total energy              =    -520.62079184 Ry
     estimated scf accuracy    <       0.00000004 Ry

     iteration #  8     ecut=    60.00 Ry     beta= 0.70
     Davidson diagonalization with overlap
     ethr =  1.02E-10,  avg # of iterations =  2.7

     total cpu time spent up to now is      543.2 secs

     total energy              =    -520.62079186 Ry
     estimated scf accuracy    <       0.00000003 Ry

     iteration #  9     ecut=    60.00 Ry     beta= 0.70
     Davidson diagonalization with overlap
     ethr =  5.94E-11,  avg # of iterations =  2.8

     total cpu time spent up to now is      545.4 secs

     total energy              =    -520.62079184 Ry
     estimated scf accuracy    <       0.00000002 Ry

     iteration # 10     ecut=    60.00 Ry     beta= 0.70
     Davidson diagonalization with overlap
     ethr =  4.75E-11,  avg # of iterations =  3.9

     total cpu time spent up to now is      548.0 secs

     total energy              =    -520.62079176 Ry
     estimated scf accuracy    <       0.00000001 Ry

     iteration # 11     ecut=    60.00 Ry     beta= 0.70
     Davidson diagonalization with overlap
     ethr =  2.50E-11,  avg # of iterations =  8.7

     total cpu time spent up to now is      551.4 secs

     End of self-consistent calculation

     =================== HUBBARD OCCUPATIONS ===================
     ------------------------ ATOM    3 ------------------------
     Tr[ns(  3)] =   5.23646
     eigenvalues:
       0.219  0.312  0.399  0.713  0.976
     eigenvectors (columns):
       0.537 -0.002 -0.207  0.000 -0.818
      -0.001  0.965  0.002  0.264 -0.003
      -0.805 -0.001 -0.418 -0.000 -0.422
       0.254  0.004 -0.885 -0.002  0.391
      -0.000  0.264  0.002 -0.965 -0.002
     occupation matrix ns (before diag.):
       0.733  0.002  0.277 -0.209  0.001
       0.002  0.340  0.001 -0.001 -0.102
       0.277  0.001  0.385 -0.058  0.001
      -0.209 -0.001 -0.058  0.476  0.000
       0.001 -0.102  0.001  0.000  0.685

     Number of occupied Hubbard levels =    5.2365

          k = 0.0000 0.0000 0.0000 (  3893 PWs)   bands (ev):

   -72.8861 -42.3127 -41.5338 -40.9241 -11.8806 -10.5524 -10.2821 -10.0524
     0.8167   1.5003   2.2384   2.7009   3.0727   3.9206   4.1028   4.3664
     4.6233   5.4185   5.6266   5.6791   6.0630   7.1407   8.0015  10.0778
    10.3433  11.7314

          k =-0.0002 0.0004 0.1875 (  3895 PWs)   bands (ev):

   -72.8860 -42.3127 -41.5338 -40.9241 -11.6843 -10.7078 -10.3518 -10.0906
     1.0132   1.8000   1.9834   3.0747   3.0820   3.8822   4.0239   4.4778
     4.5980   4.9619   5.5739   5.6036   5.7648   7.0981   8.1038   9.7882
    10.3852  12.8477

          k = 0.0005-0.0008-0.3750 (  3896 PWs)   bands (ev):

   -72.8859 -42.3128 -41.5339 -40.9241 -11.3542 -10.9827 -10.4226 -10.1436
     1.2718   1.8268   2.5179   3.0182   3.0708   3.4855   3.8757   4.5471
     4.5683   4.8348   5.4825   5.5237   5.6331   7.0547   8.1866   9.5468
    10.4278  14.4598

          k = 0.0003 0.1194-0.0965 (  3890 PWs)   bands (ev):

   -72.8861 -42.3127 -41.5338 -40.9241 -11.7755 -10.5789 -10.4191 -10.0355
     1.0401   1.5179   2.1955   2.7973   3.1078   3.9415   4.1153   4.3135
     4.6896   5.0214   5.4890   5.6310   6.0668   7.1650   7.9947  10.1419
    10.3834  12.5210

          k = 0.0000 0.1198 0.0910 (  3904 PWs)   bands (ev):

   -72.8861 -42.3127 -41.5338 -40.9241 -11.7287 -10.7893 -10.2448 -10.0455
     0.9500   1.7980   2.1076   2.8947   3.0402   3.8080   3.9207   4.4829
     4.6157   5.2225   5.5841   5.5852   5.8411   7.1353   8.0995   9.7935
    10.3443  12.4960

          k = 0.0008 0.1185-0.4715 (  3922 PWs)   bands (ev):

   -72.8860 -42.3128 -41.5338 -40.9241 -11.4045 -11.0619 -10.3229 -10.0865
     1.3081   1.6538   2.4302   3.0391   3.1567   3.5111   3.9030   4.3350
     4.5866   5.0799   5.4410   5.5007   5.6784   7.0913   8.2028   9.5564
    10.3868  13.8600

          k = 0.0005 0.1189-0.2840 (  3907 PWs)   bands (ev):

   -72.8860 -42.3127 -41.5339 -40.9241 -11.5314 -10.7876 -10.4819 -10.0756
     1.2368   1.7918   2.2213   2.9717   3.1076   3.8328   3.8997   4.4328
     4.5037   4.9004   5.4497   5.5509   5.7716   7.1252   8.1238   9.8657
    10.4251  14.0919

          k =-0.0006-0.2387 0.1929 (  3908 PWs)   bands (ev):

   -72.8860 -42.3127 -41.5339 -40.9241 -11.6414 -10.6765 -10.5096 -10.0219
     1.0201   1.8611   2.4016   2.8232   3.1455   3.6052   3.9658   4.2557
     4.5792   4.9940   5.4792   5.5822   6.0680   7.1894   7.9861  10.2101
    10.4229  13.8338

          k =-0.0008-0.2383 0.3804 (  3904 PWs)   bands (ev):

   -72.8860 -42.3127 -41.5338 -40.9241 -11.5897 -10.8595 -10.3686 -10.0331
     1.3369   1.7517   2.0053   2.9088   3.0711   3.8074   3.9423   4.4365
     4.7363   4.8825   5.4349   5.5331   5.8075   7.1607   8.1295   9.8762
    10.3844  13.4205

          k =-0.0001-0.2396-0.1821 (  3900 PWs)   bands (ev):

   -72.8861 -42.3128 -41.5338 -40.9241 -11.4469 -11.1310 -10.2280 -10.0426
     1.1545   1.8270   2.3141   3.0091   3.0353   3.7130   3.9320   4.0985
     4.5975   5.1820   5.4839   5.5574   5.7319   7.1261   8.1687   9.5456
    10.3458  13.7646

          k = 0.2498-0.0606-0.1389 (  3913 PWs)   bands (ev):

   -72.8832 -42.3097 -41.5282 -40.9632 -11.3227 -10.5803 -10.2119 -10.0344
     1.4039   1.6775   2.1281   2.4350   2.7797   3.0170   3.8394   4.0117
     4.2842   5.0120   5.3013   5.5170   6.1194   6.9826   8.0243   9.6935
    10.1064  13.9391

          k = 0.2496-0.0602 0.0486 (  3893 PWs)   bands (ev):

   -72.8832 -42.3097 -41.5282 -40.9632 -11.4213 -10.4532 -10.2578 -10.0011
     1.4220   1.8165   2.0464   2.4463   2.8268   2.8680   3.7128   3.9934
     4.2919   5.0292   5.3860   5.5674   6.0457   7.0722   7.9522   9.7599
    10.0820  13.5885

          k = 0.2503-0.0614-0.5139 (  3920 PWs)   bands (ev):

   -72.8832 -42.3097 -41.5283 -40.9632 -11.2267 -10.5501 -10.3436 -10.0538
     1.3239   1.6854   2.2024   2.5554   2.6749   3.0103   4.0029   4.1247
     4.3912   4.9252   5.0548   5.4841   6.1619   6.9720   8.0206   9.6494
    10.0365  14.7106

          k = 0.2501-0.0610-0.3264 (  3917 PWs)   bands (ev):

   -72.8832 -42.3097 -41.5283 -40.9632 -11.0416 -10.7625 -10.2944 -10.0926
     1.3359   1.6534   2.0963   2.4480   2.7334   3.3601   3.9218   4.2050
     4.3887   4.8571   4.9998   5.4700   6.1836   6.8955   8.0883   9.8123
     9.8620  15.0998

          k = 0.2501 0.0588-0.2353 (  3919 PWs)   bands (ev):

   -72.8832 -42.3097 -41.5283 -40.9632 -11.2270 -10.5501 -10.3431 -10.0539
     1.3242   1.6856   2.2028   2.5537   2.6753   3.0104   4.0016   4.1246
     4.3919   4.9267   5.0540   5.4842   6.1619   6.9729   8.0201   9.6498
    10.0360  14.7091

          k = 0.2499 0.0592-0.0478 (  3898 PWs)   bands (ev):

   -72.8832 -42.3097 -41.5282 -40.9632 -11.4216 -10.4531 -10.2575 -10.0011
     1.4220   1.8163   2.0464   2.4460   2.8249   2.8700   3.7126   3.9927
     4.2927   5.0278   5.3877   5.5677   6.0451   7.0725   7.9522   9.7600
    10.0820  13.5877

          k = 0.2506 0.0579-0.6103 (  3912 PWs)   bands (ev):

   -72.8832 -42.3097 -41.5282 -40.9632 -11.3228 -10.5799 -10.2123 -10.0344
     1.4032   1.6779   2.1278   2.4343   2.7818   3.0157   3.8398   4.0124
     4.2844   5.0112   5.3004   5.5178   6.1200   6.9824   8.0244   9.6928
    10.1065  13.9404

          k = 0.2504 0.0584-0.4228 (  3914 PWs)   bands (ev):

   -72.8832 -42.3097 -41.5283 -40.9632 -11.0416 -10.7622 -10.2946 -10.0927
     1.3359   1.6532   2.0961   2.4481   2.7333   3.3608   3.9232   4.2043
     4.3875   4.8567   5.0000   5.4705   6.1840   6.8958   8.0879   9.8125
     9.8614  15.1004

          k = 0.2492-0.2993 0.0541 (  3925 PWs)   bands (ev):

   -72.8832 -42.3097 -41.5283 -40.9632 -11.1563 -10.6486 -10.3416 -10.0388
     1.4715   1.8459   2.1105   2.4676   2.6749   3.1219   3.7080   4.0401
     4.3813   4.8979   5.1131   5.5385   6.1546   6.9833   8.0346   9.6648
    10.1195  14.7139

          k = 0.2490-0.2989 0.2416 (  3915 PWs)   bands (ev):

   -72.8832 -42.3097 -41.5283 -40.9633 -11.2881 -10.4720 -10.4038 -10.0041
     1.3860   1.9740   2.2635   2.5109   2.6660   2.8920   3.5512   3.9520
     4.4819   4.9120   5.1603   5.5963   6.1146   7.0878   7.9396   9.7084
    10.0850  14.4984

          k = 0.2497-0.3001-0.3209 (  3912 PWs)   bands (ev):

   -72.8832 -42.3097 -41.5282 -40.9632 -11.2709 -10.6429 -10.2239 -10.0228
     1.6112   1.7855   1.9364   2.5657   2.7897   3.0502   3.5708   3.8896
     4.1551   5.0729   5.3524   5.5771   6.1090   6.9868   8.0352   9.7215
    10.1898  13.8669

          k = 0.2495-0.2997-0.1334 (  3920 PWs)   bands (ev):

   -72.8832 -42.3097 -41.5282 -40.9632 -11.0629 -10.8658 -10.1948 -10.0530
     1.5710   1.7193   1.9745   2.5682   2.7550   3.1050   3.5142   4.1725
     4.2937   4.8426   5.3192   5.5465   6.1561   6.8959   8.1004   9.9102
     9.9466  14.6174

          k = 0.2495-0.1799-0.0424 (  3913 PWs)   bands (ev):

   -72.8832 -42.3097 -41.5282 -40.9632 -11.2704 -10.6432 -10.2241 -10.0229
     1.6116   1.7857   1.9364   2.5676   2.7891   3.0484   3.5708   3.8897
     4.1561   5.0733   5.3505   5.5776   6.1093   6.9870   8.0348   9.7220
    10.1893  13.8668

          k = 0.2493-0.1795 0.1451 (  3921 PWs)   bands (ev):

   -72.8832 -42.3097 -41.5283 -40.9633 -11.2878 -10.4722 -10.4040 -10.0041
     1.3858   1.9738   2.2639   2.5126   2.6655   2.8916   3.5504   3.9523
     4.4817   4.9113   5.1610   5.5960   6.1147   7.0874   7.9396   9.7082
    10.0851  14.4999

          k = 0.2500-0.1808-0.4174 (  3924 PWs)   bands (ev):

   -72.8832 -42.3097 -41.5283 -40.9632 -11.1565 -10.6486 -10.3414 -10.0386
     1.4709   1.8462   2.1103   2.4685   2.6740   3.1227   3.7064   4.0413
     4.3808   4.8986   5.1134   5.5380   6.1540   6.9825   8.0352   9.6646
    10.1204  14.7130

          k = 0.2498-0.1804-0.2299 (  3913 PWs)   bands (ev):

   -72.8832 -42.3097 -41.5282 -40.9632 -11.0628 -10.8661 -10.1946 -10.0529
     1.5713   1.7188   1.9749   2.5687   2.7547   3.1049   3.5129   4.1735
     4.2935   4.8423   5.3206   5.5456   6.1557   6.8956   8.1007   9.9101
     9.9474  14.6172

          k =-0.4996 0.1212 0.2777 (  3924 PWs)   bands (ev):

   -72.8808 -42.3067 -41.5227 -41.0020 -10.6338 -10.4388 -10.2794 -10.0944
     0.7132   1.2106   1.8421   2.2753   2.5905   3.4988   3.8974   4.2684
     4.5390   4.7676   4.8128   5.3335   5.9805   6.7993   7.9321   9.9996
    10.1087  15.3027

          k =-0.4999 0.1216 0.4652 (  3919 PWs)   bands (ev):

   -72.8808 -42.3066 -41.5227 -41.0020 -10.6788 -10.4556 -10.2648 -10.0534
     0.9163   1.2297   1.9728   2.3789   2.5995   3.4249   3.6789   4.2294
     4.4052   4.5202   4.9192   5.1694   5.9771   6.9670   7.9166   9.8132
    10.0691  15.8400

          k =-0.4991 0.1203-0.0973 (  3936 PWs)   bands (ev):

   -72.8808 -42.3066 -41.5227 -41.0021 -10.7163 -10.4755 -10.2485 -10.0185
     1.0792   1.3430   2.2133   2.4503   2.6536   3.1078   3.3960   4.1586
     4.3509   4.4918   4.9041   5.0407   5.9680   7.0956   7.9048   9.5984
    10.0840  16.0894

          k =-0.4993 0.2405 0.1813 (  3933 PWs)   bands (ev):

   -72.8808 -42.3067 -41.5227 -41.0020 -10.6337 -10.4394 -10.2786 -10.0948
     0.7791   1.1119   1.8494   2.2742   2.5777   3.6515   3.8627   4.2012
     4.5329   4.7548   4.8240   5.3286   5.9792   6.8026   7.9264  10.0139
    10.0841  15.6080

          k =-0.4996 0.2409 0.3688 (  3926 PWs)   bands (ev):

   -72.8808 -42.3066 -41.5227 -41.0020 -10.6784 -10.4581 -10.2623 -10.0538
     0.9012   1.2665   1.9663   2.2364   2.8014   3.3438   3.6756   4.2141
     4.4095   4.5210   4.9311   5.1779   5.9754   6.9721   7.9161   9.8017
    10.0826  15.6340

          k =-0.4988 0.2397-0.1937 (  3915 PWs)   bands (ev):

   -72.8808 -42.3066 -41.5227 -41.0020 -10.7185 -10.4697 -10.2538 -10.0166
     1.0938   1.3117   2.1814   2.5371   2.6937   3.0052   3.4670   4.1338
     4.2867   4.4854   4.8833   5.1032   5.9723   7.1004   7.9049   9.6081
    10.0760  16.0463

          k =-0.4991 0.2401-0.0062 (  3927 PWs)   bands (ev):

   -72.8808 -42.3066 -41.5227 -41.0020 -10.6781 -10.4579 -10.2625 -10.0541
     0.9013   1.2662   1.9650   2.2364   2.8015   3.3442   3.6760   4.2148
     4.4109   4.5212   4.9308   5.1772   5.9756   6.9718   7.9158   9.8017
    10.0826  15.6307

          k =-0.5002-0.1176 0.4707 (  3926 PWs)   bands (ev):

   -72.8808 -42.3067 -41.5227 -41.0020 -10.6340 -10.4385 -10.2795 -10.0944
     0.7143   1.2098   1.8413   2.2742   2.5882   3.4997   3.8998   4.2696
     4.5404   4.7672   4.8129   5.3332   5.9806   6.7995   7.9313   9.9982
    10.1092  15.2993

          k =-0.5005-0.1171 0.6582 (  3915 PWs)   bands (ev):

   -72.8808 -42.3066 -41.5227 -41.0020 -10.6792 -10.4555 -10.2647 -10.0531
     0.9175   1.2292   1.9724   2.3779   2.5975   3.4253   3.6798   4.2297
     4.4050   4.5216   4.9192   5.1698   5.9771   6.9676   7.9162   9.8124
    10.0693  15.8416

          k =-0.4997-0.1184 0.0957 (  3930 PWs)   bands (ev):

   -72.8808 -42.3066 -41.5227 -41.0020 -10.7169 -10.4757 -10.2482 -10.0179
     1.0807   1.3427   2.2130   2.4496   2.6517   3.1084   3.3962   4.1578
     4.3507   4.4920   4.9054   5.0411   5.9679   7.0965   7.9047   9.5972
    10.0842  16.0930

     the Fermi energy is     7.0480 ev

!    total energy              =    -520.62079195 Ry
     total all-electron energy =     -3720.874050 Ry
     estimated scf accuracy    <          1.9E-09 Ry
     smearing contrib. (-TS)   =      -0.00493147 Ry
     internal energy E=F+TS    =    -520.61586047 Ry

     The total energy is F=E-TS. E is the sum of the following terms:
     one-electron contribution =    -240.57380104 Ry
     hartree contribution      =     145.36346138 Ry
     xc contribution           =     -61.25039657 Ry
     ewald contribution        =    -185.65907298 Ry
     Hubbard energy            =       0.24481338 Ry
     one-center paw contrib.   =    -178.74086465 Ry

     convergence has been achieved in  11 iterations
     force_hub    :    179.11s CPU     24.99s WALL (      12 calls)
     dndtau       :    158.14s CPU     22.07s WALL (    9072 calls)
     dprojdtau    :     22.11s CPU      3.47s WALL (    9072 calls)
     calc_doverla :     86.36s CPU     11.79s WALL (    9072 calls)
     matel_dSdtau :    116.11s CPU     15.83s WALL (   18144 calls)

     Forces acting on atoms (cartesian axes, Ry/au):

     atom    1 type  1   force =     0.00015148   -0.00043963    0.00010197
     atom    2 type  1   force =     0.00001651    0.00016338   -0.00000369
     atom    3 type  3   force =    -0.00001408    0.00040162   -0.00053588
     atom    4 type  2   force =    -0.00019860    0.00029902    0.00030339
     atom    5 type  2   force =     0.00012962    0.00015190    0.00088114
     atom    6 type  2   force =    -0.00004202   -0.00051770   -0.00084567
     atom    7 type  2   force =    -0.00004290   -0.00005859    0.00009874

     Total force =     0.001655     Total SCF correction =     0.000056


     Computing stress (Cartesian axis) and pressure

     stres_hub    :    499.48s CPU     63.79s WALL (      12 calls)
     dprojdepsilo :    408.05s CPU     51.92s WALL (    3888 calls)
     dprojdeps1   :     41.80s CPU      5.76s WALL (    3888 calls)
     dprojdeps2   :    235.78s CPU     29.03s WALL (    3888 calls)
     dprojdeps3   :    130.38s CPU     17.11s WALL (    3888 calls)
          total   stress  (Ry/bohr**3)                   (kbar)     P=        0.10
  -0.00000021  -0.00000102   0.00000042           -0.03       -0.15        0.06
  -0.00000102   0.00000389  -0.00000149           -0.15        0.57       -0.22
   0.00000042  -0.00000149  -0.00000155            0.06       -0.22       -0.23

     Energy error            =      7.4E-06 Ry
     Gradient error          =      8.8E-04 Ry/Bohr
     Cell gradient error     =      5.7E-01 kbar

     number of scf cycles    =  12
     number of bfgs steps    =  11

     enthalpy           old  =    -520.6207845445 Ry
     enthalpy           new  =    -520.6207919452 Ry

     CASE: enthalpy          _new < enthalpy          _old

     new trust radius        =       0.0028527620 bohr
     new conv_thr            =       0.0000000100 Ry

     new unit-cell volume =    487.60014 a.u.^3 (    72.25489 Ang^3 )
     density =      3.85044 g/cm^3

CELL_PARAMETERS (angstrom)
   2.962372359  -0.004484953   0.004219550
   1.492456031   6.184467558  -0.011714959
   2.962136087   3.178286683   3.939552605

ATOMIC_POSITIONS (angstrom)
Mg               3.4436999428        4.7970861825        1.4564978487
Mg               0.4766732910        1.1116771993        0.3388132931
Mn               4.9195517683        2.3318784964        2.5384556325
O                3.4482998953        6.9055451006        1.8221628960
O                4.9218804097        4.3066304936        2.8664187719
O                3.4409065627        2.7955516813        1.3656245851
O                4.9281178928        8.4097185681        3.9000567090



     Writing config-only to output data dir .\out\\qgan.save\ :
     XML data file
     NEW-OLD atomic charge density approx. for the potential
     New effective cutoffs (rho, wfc):  494.69   61.88

     Check: negative core charge=   -0.000002

     Atomic wfc used for Hubbard projectors are orthogonalized


     total cpu time spent up to now is      561.9 secs

     Self-consistent Calculation

     iteration #  1     ecut=    60.00 Ry     beta= 0.70
     Davidson diagonalization with overlap
     ethr =  1.00E-06,  avg # of iterations =  5.0

     =================== HUBBARD OCCUPATIONS ===================
     ------------------------ ATOM    3 ------------------------
     Tr[ns(  3)] =   5.23719
     eigenvalues:
       0.219  0.312  0.399  0.713  0.976
     eigenvectors (columns):
       0.536 -0.002 -0.208  0.001 -0.818
      -0.001  0.965  0.002  0.264 -0.003
      -0.805 -0.001 -0.417 -0.000 -0.422
       0.254  0.004 -0.885 -0.002  0.391
      -0.000  0.264  0.002 -0.965 -0.002
     occupation matrix ns (before diag.):
       0.733  0.002  0.276 -0.209  0.001
       0.002  0.340  0.001 -0.001 -0.102
       0.276  0.001  0.385 -0.058  0.001
      -0.209 -0.001 -0.058  0.476  0.000
       0.001 -0.102  0.001  0.000  0.685

     Number of occupied Hubbard levels =    5.2372

     Threshold (ethr) on eigenvalues was too large:
     Diagonalizing with lowered threshold

     Davidson diagonalization with overlap
     ethr =  1.16E-08,  avg # of iterations =  4.8

     total cpu time spent up to now is      568.3 secs

     total energy              =    -520.62079442 Ry
     estimated scf accuracy    <       0.00000554 Ry

     iteration #  2     ecut=    60.00 Ry     beta= 0.70
     Davidson diagonalization with overlap
     ethr =  1.29E-08,  avg # of iterations =  3.2

     total cpu time spent up to now is      570.7 secs

     total energy              =    -520.62079148 Ry
     estimated scf accuracy    <       0.00002653 Ry

     iteration #  3     ecut=    60.00 Ry     beta= 0.70
     Davidson diagonalization with overlap
     ethr =  1.29E-08,  avg # of iterations =  2.0

     total cpu time spent up to now is      572.9 secs

     total energy              =    -520.62079473 Ry
     estimated scf accuracy    <       0.00000890 Ry

     iteration #  4     ecut=    60.00 Ry     beta= 0.70
     Davidson diagonalization with overlap
     ethr =  1.29E-08,  avg # of iterations =  2.0

     total cpu time spent up to now is      575.1 secs

     total energy              =    -520.62079592 Ry
     estimated scf accuracy    <       0.00000214 Ry

     iteration #  5     ecut=    60.00 Ry     beta= 0.70
     Davidson diagonalization with overlap
     ethr =  4.97E-09,  avg # of iterations =  1.6

     total cpu time spent up to now is      577.3 secs

     total energy              =    -520.62079623 Ry
     estimated scf accuracy    <       0.00000014 Ry

     iteration #  6     ecut=    60.00 Ry     beta= 0.70
     Davidson diagonalization with overlap
     ethr =  3.19E-10,  avg # of iterations =  7.6

     total cpu time spent up to now is      580.6 secs

     total energy              =    -520.62079640 Ry
     estimated scf accuracy    <       0.00000005 Ry

     iteration #  7     ecut=    60.00 Ry     beta= 0.70
     Davidson diagonalization with overlap
     ethr =  1.08E-10,  avg # of iterations =  2.8

     total cpu time spent up to now is      583.0 secs

     total energy              =    -520.62079641 Ry
     estimated scf accuracy    <       0.00000001 Ry

     iteration #  8     ecut=    60.00 Ry     beta= 0.70
     Davidson diagonalization with overlap
     ethr =  2.92E-11,  avg # of iterations =  8.8

     total cpu time spent up to now is      586.4 secs

     total energy              =    -520.62079643 Ry
     estimated scf accuracy    <       0.00000001 Ry

     iteration #  9     ecut=    60.00 Ry     beta= 0.70
     Davidson diagonalization with overlap
     ethr =  2.86E-11,  avg # of iterations =  1.7

     total cpu time spent up to now is      588.5 secs

     End of self-consistent calculation

     =================== HUBBARD OCCUPATIONS ===================
     ------------------------ ATOM    3 ------------------------
     Tr[ns(  3)] =   5.23651
     eigenvalues:
       0.219  0.312  0.399  0.713  0.976
     eigenvectors (columns):
       0.536 -0.002 -0.208  0.000 -0.818
      -0.001  0.965  0.002  0.264 -0.003
      -0.805 -0.001 -0.417 -0.000 -0.421
       0.254  0.004 -0.885 -0.002  0.391
      -0.000  0.264  0.002 -0.965 -0.002
     occupation matrix ns (before diag.):
       0.734  0.002  0.276 -0.209  0.001
       0.002  0.340  0.001 -0.001 -0.102
       0.276  0.001  0.385 -0.058  0.001
      -0.209 -0.001 -0.058  0.476  0.000
       0.001 -0.102  0.001  0.000  0.685

     Number of occupied Hubbard levels =    5.2365

          k = 0.0000 0.0000 0.0000 (  3893 PWs)   bands (ev):

   -72.8875 -42.3143 -41.5353 -40.9252 -11.8808 -10.5520 -10.2825 -10.0549
     0.8174   1.4980   2.2399   2.7007   3.0733   3.9169   4.1001   4.3640
     4.6247   5.4181   5.6245   5.6755   6.0616   7.1400   7.9990  10.0776
    10.3398  11.7306

          k =-0.0003 0.0004 0.1876 (  3895 PWs)   bands (ev):

   -72.8875 -42.3143 -41.5353 -40.9252 -11.6842 -10.7074 -10.3529 -10.0928
     1.0143   1.8002   1.9813   3.0752   3.0822   3.8788   4.0228   4.4755
     4.5979   4.9625   5.5710   5.5996   5.7628   7.0976   8.1015   9.7876
    10.3816  12.8472

          k = 0.0005-0.0008-0.3752 (  3896 PWs)   bands (ev):

   -72.8874 -42.3144 -41.5354 -40.9252 -11.3534 -10.9825 -10.4244 -10.1456
     1.2722   1.8282   2.5185   3.0167   3.0713   3.4830   3.8726   4.5486
     4.5661   4.8327   5.4808   5.5193   5.6305   7.0542   8.1846   9.5456
    10.4242  14.4610

          k = 0.0003 0.1193-0.0965 (  3890 PWs)   bands (ev):

   -72.8875 -42.3143 -41.5353 -40.9252 -11.7756 -10.5789 -10.4192 -10.0380
     1.0405   1.5167   2.1961   2.7963   3.1085   3.9377   4.1149   4.3111
     4.6896   5.0212   5.4866   5.6275   6.0649   7.1643   7.9924  10.1422
    10.3798  12.5201

          k = 0.0001 0.1197 0.0911 (  3904 PWs)   bands (ev):

   -72.8875 -42.3143 -41.5353 -40.9252 -11.7288 -10.7889 -10.2457 -10.0477
     0.9513   1.7972   2.1081   2.8939   3.0408   3.8068   3.9172   4.4806
     4.6147   5.2202   5.5812   5.5829   5.8401   7.1347   8.0975   9.7933
    10.3408  12.4954

          k = 0.0009 0.1185-0.4717 (  3922 PWs)   bands (ev):

   -72.8874 -42.3144 -41.5354 -40.9252 -11.4042 -11.0617 -10.3244 -10.0885
     1.3093   1.6548   2.4310   3.0396   3.1538   3.5101   3.8997   4.3326
     4.5843   5.0798   5.4394   5.4964   5.6763   7.0907   8.2010   9.5559
    10.3833  13.8584

          k = 0.0006 0.1189-0.2841 (  3907 PWs)   bands (ev):

   -72.8874 -42.3143 -41.5354 -40.9252 -11.5312 -10.7873 -10.4828 -10.0780
     1.2376   1.7913   2.2214   2.9708   3.1082   3.8323   3.8963   4.4305
     4.5037   4.8992   5.4478   5.5470   5.7691   7.1246   8.1218   9.8655
    10.4214  14.0918

          k =-0.0006-0.2386 0.1930 (  3908 PWs)   bands (ev):

   -72.8874 -42.3143 -41.5354 -40.9252 -11.6414 -10.6773 -10.5089 -10.0244
     1.0197   1.8620   2.4018   2.8210   3.1462   3.6048   3.9620   4.2534
     4.5794   4.9935   5.4771   5.5787   6.0658   7.1888   7.9839  10.2110
    10.4192  13.8332

          k =-0.0009-0.2382 0.3806 (  3904 PWs)   bands (ev):

   -72.8874 -42.3143 -41.5353 -40.9252 -11.5898 -10.8590 -10.3694 -10.0355
     1.3386   1.7505   2.0062   2.9073   3.0716   3.8069   3.9388   4.4342
     4.7341   4.8815   5.4333   5.5292   5.8058   7.1601   8.1278   9.8764
    10.3808  13.4196

          k =-0.0001-0.2395-0.1822 (  3900 PWs)   bands (ev):

   -72.8875 -42.3144 -41.5353 -40.9252 -11.4470 -11.1306 -10.2293 -10.0445
     1.1561   1.8284   2.3154   3.0096   3.0321   3.7109   3.9286   4.0962
     4.5953   5.1800   5.4797   5.5557   5.7316   7.1255   8.1670   9.5457
    10.3423  13.7620

          k = 0.2498-0.0605-0.1390 (  3913 PWs)   bands (ev):

   -72.8846 -42.3113 -41.5298 -40.9643 -11.3231 -10.5801 -10.2123 -10.0377
     1.4042   1.6764   2.1281   2.4339   2.7803   3.0151   3.8374   4.0105
     4.2822   5.0115   5.3010   5.5141   6.1183   6.9815   8.0222   9.6918
    10.1047  13.9392

          k = 0.2495-0.0601 0.0486 (  3893 PWs)   bands (ev):

   -72.8846 -42.3113 -41.5297 -40.9643 -11.4219 -10.4530 -10.2579 -10.0044
     1.4218   1.8155   2.0454   2.4463   2.8261   2.8681   3.7117   3.9903
     4.2905   5.0285   5.3865   5.5644   6.0443   7.0712   7.9499   9.7585
    10.0804  13.5875

          k = 0.2503-0.0614-0.5141 (  3920 PWs)   bands (ev):

   -72.8846 -42.3113 -41.5298 -40.9643 -11.2269 -10.5498 -10.3444 -10.0569
     1.3235   1.6845   2.2026   2.5550   2.6745   3.0093   4.0007   4.1230
     4.3906   4.9251   5.0545   5.4806   6.1607   6.9705   8.0185   9.6476
    10.0354  14.7097

          k = 0.2500-0.0610-0.3265 (  3917 PWs)   bands (ev):

   -72.8846 -42.3113 -41.5298 -40.9643 -11.0412 -10.7627 -10.2954 -10.0956
     1.3353   1.6528   2.0968   2.4478   2.7324   3.3594   3.9207   4.2028
     4.3869   4.8568   4.9993   5.4666   6.1828   6.8941   8.0862   9.8119
     9.8594  15.0997

          k = 0.2501 0.0588-0.2355 (  3919 PWs)   bands (ev):

   -72.8846 -42.3113 -41.5298 -40.9643 -11.2270 -10.5499 -10.3441 -10.0570
     1.3239   1.6845   2.2029   2.5535   2.6748   3.0095   3.9998   4.1229
     4.3909   4.9261   5.0541   5.4806   6.1607   6.9714   8.0179   9.6483
    10.0348  14.7087

          k = 0.2498 0.0592-0.0479 (  3898 PWs)   bands (ev):

   -72.8846 -42.3113 -41.5298 -40.9643 -11.4220 -10.4529 -10.2578 -10.0044
     1.4218   1.8154   2.0453   2.4462   2.8248   2.8694   3.7116   3.9900
     4.2909   5.0277   5.3875   5.5646   6.0440   7.0714   7.9499   9.7585
    10.0804  13.5871

          k = 0.2506 0.0579-0.6106 (  3912 PWs)   bands (ev):

   -72.8846 -42.3113 -41.5298 -40.9643 -11.3232 -10.5799 -10.2125 -10.0377
     1.4036   1.6766   2.1279   2.4334   2.7818   3.0144   3.8377   4.0111
     4.2823   5.0110   5.3003   5.5147   6.1187   6.9812   8.0224   9.6911
    10.1050  13.9400

          k = 0.2503 0.0584-0.4231 (  3914 PWs)   bands (ev):

   -72.8846 -42.3113 -41.5298 -40.9642 -11.0412 -10.7625 -10.2955 -10.0957
     1.3354   1.6526   2.0967   2.4480   2.7322   3.3598   3.9216   4.2023
     4.3862   4.8566   4.9992   5.4670   6.1830   6.8943   8.0860   9.8122
     9.8588  15.1000

          k = 0.2491-0.2992 0.0541 (  3925 PWs)   bands (ev):

   -72.8846 -42.3113 -41.5298 -40.9643 -11.1565 -10.6485 -10.3422 -10.0419
     1.4709   1.8455   2.1112   2.4665   2.6742   3.1214   3.7069   4.0385
     4.3793   4.8973   5.1120   5.5349   6.1535   6.9819   8.0327   9.6635
    10.1187  14.7123

          k = 0.2489-0.2988 0.2416 (  3915 PWs)   bands (ev):

   -72.8846 -42.3113 -41.5298 -40.9643 -11.2884 -10.4724 -10.4038 -10.0072
     1.3850   1.9739   2.2637   2.5104   2.6659   2.8906   3.5499   3.9498
     4.4809   4.9114   5.1596   5.5928   6.1135   7.0863   7.9375   9.7069
    10.0844  14.4976

          k = 0.2497-0.3000-0.3211 (  3912 PWs)   bands (ev):

   -72.8846 -42.3113 -41.5298 -40.9643 -11.2713 -10.6427 -10.2243 -10.0260
     1.6114   1.7849   1.9362   2.5661   2.7889   3.0490   3.5690   3.8887
     4.1526   5.0714   5.3519   5.5740   6.1082   6.9856   8.0334   9.7199
    10.1886  13.8665

          k = 0.2494-0.2996-0.1335 (  3920 PWs)   bands (ev):

   -72.8846 -42.3113 -41.5298 -40.9643 -11.0630 -10.8659 -10.1952 -10.0561
     1.5713   1.7187   1.9750   2.5679   2.7539   3.1044   3.5114   4.1701
     4.2918   4.8423   5.3183   5.5434   6.1551   6.8947   8.0989   9.9098
     9.9443  14.6171

          k = 0.2494-0.1799-0.0424 (  3913 PWs)   bands (ev):

   -72.8846 -42.3113 -41.5298 -40.9643 -11.2710 -10.6430 -10.2244 -10.0261
     1.6118   1.7850   1.9362   2.5672   2.7883   3.0476   3.5691   3.8885
     4.1534   5.0714   5.3509   5.5743   6.1083   6.9860   8.0330   9.7204
    10.1882  13.8664

          k = 0.2492-0.1794 0.1451 (  3921 PWs)   bands (ev):

   -72.8846 -42.3113 -41.5298 -40.9643 -11.2882 -10.4726 -10.4039 -10.0072
     1.3848   1.9738   2.2639   2.5117   2.6654   2.8904   3.5494   3.9500
     4.4809   4.9109   5.1601   5.5925   6.1135   7.0861   7.9376   9.7067
    10.0844  14.4983

          k = 0.2500-0.1807-0.4176 (  3924 PWs)   bands (ev):

   -72.8846 -42.3113 -41.5298 -40.9643 -11.1567 -10.6485 -10.3421 -10.0417
     1.4701   1.8457   2.1111   2.4671   2.6739   3.1220   3.7059   4.0393
     4.3789   4.8978   5.1122   5.5347   6.1531   6.9811   8.0333   9.6631
    10.1195  14.7121

          k = 0.2497-0.1803-0.2300 (  3913 PWs)   bands (ev):

   -72.8846 -42.3113 -41.5298 -40.9642 -11.0630 -10.8661 -10.1951 -10.0560
     1.5715   1.7184   1.9753   2.5681   2.7540   3.1044   3.5106   4.1710
     4.2915   4.8422   5.3192   5.5428   6.1549   6.8945   8.0991   9.9095
     9.9449  14.6170

          k =-0.4995 0.1211 0.2779 (  3924 PWs)   bands (ev):

   -72.8823 -42.3083 -41.5242 -41.0029 -10.6338 -10.4389 -10.2793 -10.0994
     0.7121   1.2108   1.8419   2.2738   2.5878   3.4992   3.8991   4.2685
     4.5369   4.7665   4.8108   5.3330   5.9777   6.7979   7.9305   9.9985
    10.1069  15.3013

          k =-0.4998 0.1215 0.4655 (  3919 PWs)   bands (ev):

   -72.8822 -42.3082 -41.5242 -41.0029 -10.6794 -10.4556 -10.2646 -10.0579
     0.9154   1.2300   1.9725   2.3772   2.5978   3.4250   3.6789   4.2295
     4.4042   4.5192   4.9178   5.1679   5.9743   6.9659   7.9149   9.8137
    10.0655  15.8403

          k =-0.4990 0.1202-0.0973 (  3936 PWs)   bands (ev):

   -72.8822 -42.3082 -41.5242 -41.0030 -10.7173 -10.4757 -10.2480 -10.0226
     1.0788   1.3430   2.2143   2.4488   2.6512   3.1060   3.3966   4.1583
     4.3500   4.4912   4.9024   5.0392   5.9652   7.0946   7.9029   9.5987
    10.0805  16.0896

          k =-0.4992 0.2404 0.1814 (  3933 PWs)   bands (ev):

   -72.8823 -42.3083 -41.5242 -41.0029 -10.6337 -10.4395 -10.2784 -10.0998
     0.7777   1.1123   1.8493   2.2728   2.5762   3.6519   3.8623   4.2019
     4.5305   4.7537   4.8219   5.3283   5.9763   6.8012   7.9250  10.0130
    10.0822  15.6076

          k =-0.4995 0.2408 0.3690 (  3926 PWs)   bands (ev):

   -72.8822 -42.3082 -41.5242 -41.0029 -10.6788 -10.4582 -10.2621 -10.0584
     0.9001   1.2668   1.9656   2.2352   2.7999   3.3434   3.6757   4.2145
     4.4086   4.5200   4.9292   5.1764   5.9726   6.9708   7.9143   9.8024
    10.0791  15.6327

          k =-0.4987 0.2396-0.1938 (  3915 PWs)   bands (ev):

   -72.8822 -42.3082 -41.5242 -41.0029 -10.7194 -10.4698 -10.2536 -10.0208
     1.0930   1.3119   2.1818   2.5361   2.6916   3.0038   3.4673   4.1341
     4.2851   4.4846   4.8822   5.1013   5.9696   7.0992   7.9030   9.6088
    10.0725  16.0464

          k =-0.4989 0.2400-0.0062 (  3927 PWs)   bands (ev):

   -72.8822 -42.3082 -41.5242 -41.0029 -10.6786 -10.4581 -10.2622 -10.0586
     0.9004   1.2664   1.9649   2.2351   2.8002   3.3436   3.6761   4.2143
     4.4096   4.5203   4.9288   5.1760   5.9727   6.9707   7.9142   9.8021
    10.0792  15.6306

          k =-0.5002-0.1176 0.4709 (  3926 PWs)   bands (ev):

   -72.8823 -42.3083 -41.5242 -41.0029 -10.6339 -10.4387 -10.2793 -10.0994
     0.7130   1.2099   1.8413   2.2736   2.5865   3.4998   3.9003   4.2689
     4.5378   4.7664   4.8107   5.3329   5.9778   6.7981   7.9301   9.9973
    10.1075  15.2990

          k =-0.5004-0.1172 0.6585 (  3915 PWs)   bands (ev):

   -72.8822 -42.3082 -41.5242 -41.0029 -10.6796 -10.4556 -10.2646 -10.0577
     0.9162   1.2296   1.9722   2.3766   2.5966   3.4252   3.6796   4.2292
     4.4043   4.5200   4.9179   5.1681   5.9743   6.9663   7.9146   9.8132
    10.0657  15.8408

          k =-0.4996-0.1184 0.0957 (  3930 PWs)   bands (ev):

   -72.8822 -42.3082 -41.5242 -41.0029 -10.7176 -10.4757 -10.2480 -10.0223
     1.0796   1.3429   2.2141   2.4485   2.6498   3.1065   3.3966   4.1580
     4.3495   4.4915   4.9031   5.0397   5.9652   7.0952   7.9027   9.5983
    10.0806  16.0925

     the Fermi energy is     7.0469 ev

!    total energy              =    -520.62079643 Ry
     total all-electron energy =     -3720.874055 Ry
     estimated scf accuracy    <          7.3E-09 Ry
     smearing contrib. (-TS)   =      -0.00492555 Ry
     internal energy E=F+TS    =    -520.61587088 Ry

     The total energy is F=E-TS. E is the sum of the following terms:
     one-electron contribution =    -240.55688733 Ry
     hartree contribution      =     145.35302856 Ry
     xc contribution           =     -61.25000106 Ry
     ewald contribution        =    -185.66595318 Ry
     Hubbard energy            =       0.24480872 Ry
     one-center paw contrib.   =    -178.74086659 Ry

     convergence has been achieved in   9 iterations
     force_hub    :    194.27s CPU     27.13s WALL (      13 calls)
     dndtau       :    171.33s CPU     23.98s WALL (    9828 calls)
     dprojdtau    :     25.27s CPU      3.78s WALL (    9828 calls)
     calc_doverla :     92.67s CPU     12.82s WALL (    9828 calls)
     matel_dSdtau :    124.84s CPU     17.20s WALL (   19656 calls)

     Forces acting on atoms (cartesian axes, Ry/au):

     atom    1 type  1   force =     0.00003507   -0.00034848    0.00004786
     atom    2 type  1   force =     0.00001669    0.00007032    0.00019764
     atom    3 type  3   force =     0.00002160    0.00016047   -0.00057298
     atom    4 type  2   force =    -0.00013059    0.00034634    0.00024243
     atom    5 type  2   force =     0.00006526    0.00036350    0.00062301
     atom    6 type  2   force =    -0.00004863   -0.00038552   -0.00053724
     atom    7 type  2   force =     0.00004061   -0.00020664   -0.00000072

     Total force =     0.001315     Total SCF correction =     0.000064


     Computing stress (Cartesian axis) and pressure

     stres_hub    :    542.55s CPU     69.38s WALL (      13 calls)
     dprojdepsilo :    444.06s CPU     56.51s WALL (    4212 calls)
     dprojdeps1   :     46.03s CPU      6.34s WALL (    4212 calls)
     dprojdeps2   :    255.78s CPU     31.53s WALL (    4212 calls)
     dprojdeps3   :    142.16s CPU     18.62s WALL (    4212 calls)
          total   stress  (Ry/bohr**3)                   (kbar)     P=       -0.03
  -0.00000463  -0.00000062  -0.00000001           -0.68       -0.09       -0.00
  -0.00000062   0.00000297  -0.00000137           -0.09        0.44       -0.20
  -0.00000001  -0.00000137   0.00000111           -0.00       -0.20        0.16

     Energy error            =      4.5E-06 Ry
     Gradient error          =      6.2E-04 Ry/Bohr
     Cell gradient error     =      6.8E-01 kbar

     number of scf cycles    =  13
     number of bfgs steps    =  12

     enthalpy           old  =    -520.6207919452 Ry
     enthalpy           new  =    -520.6207964291 Ry

     CASE: enthalpy          _new < enthalpy          _old

     new trust radius        =       0.0024792541 bohr
     new conv_thr            =       0.0000000100 Ry

     new unit-cell volume =    487.63316 a.u.^3 (    72.25978 Ang^3 )
     density =      3.85018 g/cm^3

CELL_PARAMETERS (angstrom)
   2.962468968  -0.004779659   0.004374865
   1.491873899   6.186164896  -0.012025426
   2.962118685   3.178699681   3.938471955

ATOMIC_POSITIONS (angstrom)
Mg               3.4439193116        4.7974948501        1.4558298447
Mg               0.4766466477        1.1116619946        0.3388978970
Mn               4.9194442676        2.3325463848        2.5372936325
O                3.4473247548        6.9076110866        1.8223829956
O                4.9220671257        4.3069196383        2.8662462678
O                3.4408120051        2.7956788846        1.3639889215
O                4.9273846219        8.4119099330        3.8990395722



     Writing config-only to output data dir .\out\\qgan.save\ :
     XML data file
     NEW-OLD atomic charge density approx. for the potential
     New effective cutoffs (rho, wfc):  494.92   61.91

     Check: negative core charge=   -0.000002

     Atomic wfc used for Hubbard projectors are orthogonalized


     total cpu time spent up to now is      599.3 secs

     Self-consistent Calculation

     iteration #  1     ecut=    60.00 Ry     beta= 0.70
     Davidson diagonalization with overlap
     ethr =  1.00E-06,  avg # of iterations =  4.6

     =================== HUBBARD OCCUPATIONS ===================
     ------------------------ ATOM    3 ------------------------
     Tr[ns(  3)] =   5.23694
     eigenvalues:
       0.219  0.312  0.399  0.713  0.976
     eigenvectors (columns):
       0.536 -0.002 -0.208  0.000 -0.818
      -0.001  0.965  0.002  0.264 -0.003
      -0.805 -0.001 -0.417 -0.000 -0.421
       0.254  0.004 -0.885 -0.002  0.391
      -0.000  0.264  0.003 -0.965 -0.002
     occupation matrix ns (before diag.):
       0.734  0.002  0.276 -0.209  0.001
       0.002  0.339  0.001 -0.001 -0.102
       0.276  0.001  0.385 -0.058  0.001
      -0.209 -0.001 -0.058  0.476  0.000
       0.001 -0.102  0.001  0.000  0.685

     Number of occupied Hubbard levels =    5.2369

     Threshold (ethr) on eigenvalues was too large:
     Diagonalizing with lowered threshold

     Davidson diagonalization with overlap
     ethr =  1.29E-08,  avg # of iterations =  8.2

     total cpu time spent up to now is      606.1 secs

     total energy              =    -520.62079816 Ry
     estimated scf accuracy    <       0.00000428 Ry

     iteration #  2     ecut=    60.00 Ry     beta= 0.70
     Davidson diagonalization with overlap
     ethr =  9.95E-09,  avg # of iterations =  2.6

     total cpu time spent up to now is      608.5 secs

     total energy              =    -520.62079649 Ry
     estimated scf accuracy    <       0.00001247 Ry

     iteration #  3     ecut=    60.00 Ry     beta= 0.70
     Davidson diagonalization with overlap
     ethr =  9.95E-09,  avg # of iterations =  2.0

     total cpu time spent up to now is      610.9 secs

     total energy              =    -520.62079804 Ry
     estimated scf accuracy    <       0.00000849 Ry

     iteration #  4     ecut=    60.00 Ry     beta= 0.70
     Davidson diagonalization with overlap
     ethr =  9.95E-09,  avg # of iterations =  2.0

     total cpu time spent up to now is      613.0 secs

     total energy              =    -520.62079900 Ry
     estimated scf accuracy    <       0.00000245 Ry

     iteration #  5     ecut=    60.00 Ry     beta= 0.70
     Davidson diagonalization with overlap
     ethr =  5.70E-09,  avg # of iterations =  1.1

     total cpu time spent up to now is      615.1 secs

     total energy              =    -520.62079932 Ry
     estimated scf accuracy    <       0.00000005 Ry

     iteration #  6     ecut=    60.00 Ry     beta= 0.70
     Davidson diagonalization with overlap
     ethr =  1.08E-10,  avg # of iterations =  9.5

     total cpu time spent up to now is      619.0 secs

     total energy              =    -520.62079941 Ry
     estimated scf accuracy    <       0.00000006 Ry

     iteration #  7     ecut=    60.00 Ry     beta= 0.70
     Davidson diagonalization with overlap
     ethr =  1.08E-10,  avg # of iterations =  1.9

     total cpu time spent up to now is      621.3 secs

     End of self-consistent calculation

     =================== HUBBARD OCCUPATIONS ===================
     ------------------------ ATOM    3 ------------------------
     Tr[ns(  3)] =   5.23659
     eigenvalues:
       0.219  0.312  0.399  0.713  0.976
     eigenvectors (columns):
       0.535 -0.002 -0.208  0.000 -0.819
      -0.001  0.965  0.001  0.263 -0.003
      -0.806 -0.001 -0.417 -0.000 -0.421
       0.254  0.004 -0.885 -0.002  0.391
      -0.001  0.263  0.003 -0.965 -0.002
     occupation matrix ns (before diag.):
       0.734  0.002  0.276 -0.209  0.001
       0.002  0.339  0.001 -0.001 -0.102
       0.276  0.001  0.384 -0.058  0.000
      -0.209 -0.001 -0.058  0.476  0.000
       0.001 -0.102  0.000  0.000  0.685

     Number of occupied Hubbard levels =    5.2366

          k = 0.0000 0.0000 0.0000 (  3893 PWs)   bands (ev):

   -72.8888 -42.3159 -41.5368 -40.9261 -11.8811 -10.5523 -10.2830 -10.0579
     0.8178   1.4951   2.2400   2.7005   3.0742   3.9152   4.0970   4.3632
     4.6259   5.4163   5.6228   5.6728   6.0598   7.1393   7.9968  10.0768
    10.3374  11.7301

          k =-0.0003 0.0004 0.1876 (  3895 PWs)   bands (ev):

   -72.8888 -42.3160 -41.5369 -40.9261 -11.6844 -10.7075 -10.3538 -10.0957
     1.0149   1.7997   1.9789   3.0761   3.0821   3.8773   4.0214   4.4745
     4.5967   4.9624   5.5681   5.5967   5.7609   7.0970   8.0995   9.7864
    10.3791  12.8470

          k = 0.0006-0.0009-0.3753 (  3896 PWs)   bands (ev):

   -72.8887 -42.3160 -41.5369 -40.9261 -11.3537 -10.9822 -10.4255 -10.1488
     1.2725   1.8284   2.5176   3.0148   3.0721   3.4813   3.8714   4.5491
     4.5650   4.8306   5.4786   5.5161   5.6282   7.0538   8.1826   9.5442
    10.4217  14.4629

          k = 0.0003 0.1193-0.0965 (  3890 PWs)   bands (ev):

   -72.8888 -42.3159 -41.5369 -40.9261 -11.7760 -10.5795 -10.4192 -10.0410
     1.0404   1.5150   2.1957   2.7956   3.1093   3.9361   4.1135   4.3102
     4.6887   5.0210   5.4836   5.6248   6.0632   7.1636   7.9906  10.1418
    10.3772  12.5196

          k = 0.0001 0.1197 0.0911 (  3904 PWs)   bands (ev):

   -72.8888 -42.3160 -41.5368 -40.9261 -11.7291 -10.7891 -10.2463 -10.0507
     0.9520   1.7960   2.1071   2.8932   3.0417   3.8051   3.9156   4.4797
     4.6138   5.2171   5.5784   5.5817   5.8388   7.1340   8.0957   9.7923
    10.3384  12.4949

          k = 0.0009 0.1184-0.4718 (  3922 PWs)   bands (ev):

   -72.8888 -42.3160 -41.5369 -40.9261 -11.4044 -11.0618 -10.3252 -10.0916
     1.3101   1.6551   2.4303   3.0405   3.1513   3.5087   3.8983   4.3306
     4.5833   5.0786   5.4373   5.4934   5.6745   7.0901   8.1993   9.5547
    10.3809  13.8571

          k = 0.0006 0.1189-0.2842 (  3907 PWs)   bands (ev):

   -72.8887 -42.3160 -41.5369 -40.9261 -11.5316 -10.7872 -10.4835 -10.0811
     1.2377   1.7903   2.2206   2.9699   3.1090   3.8315   3.8950   4.4294
     4.5028   4.8980   5.4451   5.5441   5.7672   7.1240   8.1200   9.8648
    10.4189  14.0923

          k =-0.0007-0.2386 0.1930 (  3908 PWs)   bands (ev):

   -72.8888 -42.3159 -41.5369 -40.9261 -11.6419 -10.6782 -10.5084 -10.0275
     1.0186   1.8618   2.4009   2.8198   3.1470   3.6043   3.9606   4.2524
     4.5778   4.9929   5.4744   5.5762   6.0642   7.1880   7.9822  10.2111
    10.4166  13.8332

          k =-0.0009-0.2381 0.3807 (  3904 PWs)   bands (ev):

   -72.8888 -42.3160 -41.5369 -40.9261 -11.5902 -10.8591 -10.3699 -10.0386
     1.3393   1.7490   2.0060   2.9061   3.0725   3.8054   3.9373   4.4332
     4.7324   4.8794   5.4312   5.5265   5.8043   7.1594   8.1264   9.8759
    10.3783  13.4190

          k =-0.0001-0.2394-0.1822 (  3900 PWs)   bands (ev):

   -72.8888 -42.3160 -41.5368 -40.9261 -11.4471 -11.1310 -10.2300 -10.0475
     1.1572   1.8291   2.3153   3.0106   3.0288   3.7086   3.9271   4.0945
     4.5942   5.1776   5.4768   5.5534   5.7311   7.1248   8.1655   9.5448
    10.3399  13.7599

          k = 0.2498-0.0605-0.1390 (  3913 PWs)   bands (ev):

   -72.8859 -42.3129 -41.5313 -40.9650 -11.3235 -10.5801 -10.2130 -10.0407
     1.4047   1.6754   2.1277   2.4328   2.7802   3.0140   3.8359   4.0090
     4.2805   5.0107   5.2998   5.5111   6.1176   6.9803   8.0202   9.6903
    10.1032  13.9398

          k = 0.2495-0.0601 0.0486 (  3893 PWs)   bands (ev):

   -72.8859 -42.3129 -41.5313 -40.9651 -11.4225 -10.4530 -10.2585 -10.0073
     1.4218   1.8140   2.0450   2.4459   2.8258   2.8676   3.7107   3.9879
     4.2888   5.0279   5.3858   5.5610   6.0433   7.0701   7.9478   9.7574
    10.0788  13.5873

          k = 0.2503-0.0614-0.5143 (  3920 PWs)   bands (ev):

   -72.8859 -42.3129 -41.5313 -40.9651 -11.2275 -10.5495 -10.3452 -10.0599
     1.3236   1.6836   2.2018   2.5542   2.6743   3.0086   3.9985   4.1219
     4.3889   4.9242   5.0544   5.4769   6.1600   6.9690   8.0164   9.6461
    10.0342  14.7098

          k = 0.2500-0.0609-0.3266 (  3917 PWs)   bands (ev):

   -72.8860 -42.3130 -41.5313 -40.9650 -11.0417 -10.7623 -10.2963 -10.0988
     1.3354   1.6523   2.0964   2.4471   2.7320   3.3581   3.9193   4.2011
     4.3848   4.8557   4.9993   5.4628   6.1824   6.8926   8.0841   9.8109
     9.8576  15.1012

          k = 0.2501 0.0588-0.2355 (  3919 PWs)   bands (ev):

   -72.8859 -42.3129 -41.5313 -40.9651 -11.2275 -10.5496 -10.3451 -10.0600
     1.3240   1.6836   2.2021   2.5531   2.6745   3.0086   3.9980   4.1218
     4.3890   4.9248   5.0543   5.4768   6.1601   6.9698   8.0158   9.6470
    10.0335  14.7093

          k = 0.2498 0.0592-0.0479 (  3898 PWs)   bands (ev):

   -72.8859 -42.3129 -41.5313 -40.9651 -11.4225 -10.4530 -10.2585 -10.0073
     1.4218   1.8139   2.0447   2.4459   2.8250   2.8685   3.7107   3.9878
     4.2888   5.0275   5.3862   5.5611   6.0432   7.0702   7.9477   9.7575
    10.0788  13.5871

          k = 0.2506 0.0579-0.6108 (  3912 PWs)   bands (ev):

   -72.8859 -42.3129 -41.5313 -40.9650 -11.3236 -10.5800 -10.2131 -10.0406
     1.4043   1.6755   2.1276   2.4325   2.7811   3.0137   3.8360   4.0095
     4.2805   5.0103   5.2992   5.5114   6.1178   6.9800   8.0204   9.6896
    10.1037  13.9402

          k = 0.2504 0.0584-0.4232 (  3914 PWs)   bands (ev):

   -72.8860 -42.3130 -41.5313 -40.9650 -11.0417 -10.7622 -10.2964 -10.0988
     1.3355   1.6522   2.0964   2.4473   2.7318   3.3583   3.9198   4.2008
     4.3845   4.8557   4.9991   5.4630   6.1825   6.8927   8.0840   9.8114
     9.8569  15.1013

          k = 0.2491-0.2991 0.0540 (  3925 PWs)   bands (ev):

   -72.8860 -42.3129 -41.5313 -40.9651 -11.1572 -10.6485 -10.3427 -10.0449
     1.4705   1.8450   2.1108   2.4656   2.6736   3.1210   3.7060   4.0370
     4.3766   4.8965   5.1108   5.5311   6.1528   6.9804   8.0309   9.6624
    10.1178  14.7116

          k = 0.2488-0.2986 0.2417 (  3915 PWs)   bands (ev):

   -72.8859 -42.3129 -41.5313 -40.9651 -11.2890 -10.4732 -10.4036 -10.0101
     1.3841   1.9731   2.2633   2.5103   2.6657   2.8895   3.5493   3.9482
     4.4787   4.9104   5.1588   5.5890   6.1127   7.0849   7.9356   9.7058
    10.0835  14.4973

          k = 0.2496-0.2999-0.3212 (  3912 PWs)   bands (ev):

   -72.8859 -42.3129 -41.5313 -40.9650 -11.2717 -10.6429 -10.2248 -10.0291
     1.6118   1.7838   1.9362   2.5655   2.7883   3.0481   3.5677   3.8878
     4.1499   5.0698   5.3503   5.5708   6.1076   6.9844   8.0317   9.7186
    10.1875  13.8665

          k = 0.2494-0.2995-0.1336 (  3920 PWs)   bands (ev):

   -72.8859 -42.3130 -41.5313 -40.9650 -11.0635 -10.8661 -10.1956 -10.0592
     1.5719   1.7184   1.9749   2.5670   2.7531   3.1037   3.5089   4.1683
     4.2900   4.8415   5.3166   5.5402   6.1544   6.8934   8.0974   9.9090
     9.9426  14.6180

          k = 0.2494-0.1798-0.0425 (  3913 PWs)   bands (ev):

   -72.8859 -42.3129 -41.5313 -40.9650 -11.2716 -10.6430 -10.2248 -10.0291
     1.6121   1.7840   1.9363   2.5661   2.7878   3.0472   3.5678   3.8874
     4.1506   5.0697   5.3500   5.5710   6.1076   6.9848   8.0313   9.7192
    10.1870  13.8665

          k = 0.2491-0.1794 0.1452 (  3921 PWs)   bands (ev):

   -72.8859 -42.3129 -41.5313 -40.9651 -11.2889 -10.4732 -10.4037 -10.0101
     1.3841   1.9730   2.2634   2.5112   2.6652   2.8895   3.5489   3.9483
     4.4788   4.9101   5.1590   5.5889   6.1127   7.0847   7.9357   9.7057
    10.0835  14.4976

          k = 0.2500-0.1806-0.4178 (  3924 PWs)   bands (ev):

   -72.8860 -42.3129 -41.5313 -40.9651 -11.1573 -10.6484 -10.3426 -10.0448
     1.4698   1.8451   2.1108   2.4660   2.6737   3.1215   3.7056   4.0375
     4.3763   4.8968   5.1111   5.5310   6.1526   6.9796   8.0315   9.6618
    10.1186  14.7118

          k = 0.2497-0.1802-0.2301 (  3913 PWs)   bands (ev):

   -72.8859 -42.3130 -41.5313 -40.9650 -11.0634 -10.8662 -10.1956 -10.0592
     1.5720   1.7182   1.9750   2.5670   2.7533   3.1037   3.5085   4.1688
     4.2897   4.8415   5.3171   5.5399   6.1543   6.8932   8.0975   9.9086
     9.9432  14.6180

          k =-0.4995 0.1210 0.2780 (  3924 PWs)   bands (ev):

   -72.8836 -42.3099 -41.5257 -41.0037 -10.6346 -10.4380 -10.2808 -10.1022
     0.7112   1.2109   1.8413   2.2723   2.5857   3.4986   3.8999   4.2681
     4.5360   4.7643   4.8080   5.3317   5.9765   6.7965   7.9287   9.9974
    10.1055  15.3000

          k =-0.4998 0.1214 0.4657 (  3919 PWs)   bands (ev):

   -72.8836 -42.3099 -41.5257 -41.0037 -10.6804 -10.4549 -10.2659 -10.0604
     0.9146   1.2302   1.9715   2.3757   2.5964   3.4245   3.6783   4.2292
     4.4031   4.5180   4.9155   5.1654   5.9731   6.9647   7.9130   9.8133
    10.0634  15.8412

          k =-0.4990 0.1201-0.0973 (  3936 PWs)   bands (ev):

   -72.8835 -42.3099 -41.5258 -41.0037 -10.7185 -10.4752 -10.2491 -10.0250
     1.0784   1.3428   2.2143   2.4469   2.6498   3.1039   3.3973   4.1568
     4.3495   4.4909   4.8995   5.0367   5.9640   7.0936   7.9008   9.5981
    10.0785  16.0900

          k =-0.4992 0.2403 0.1815 (  3933 PWs)   bands (ev):

   -72.8836 -42.3099 -41.5257 -41.0037 -10.6344 -10.4387 -10.2799 -10.1026
     0.7763   1.1127   1.8489   2.2716   2.5748   3.6514   3.8616   4.2021
     4.5288   4.7519   4.8190   5.3271   5.9751   6.7998   7.9233  10.0119
    10.0809  15.6081

          k =-0.4994 0.2407 0.3691 (  3926 PWs)   bands (ev):

   -72.8836 -42.3099 -41.5257 -41.0037 -10.6797 -10.4574 -10.2634 -10.0611
     0.8992   1.2670   1.9645   2.2340   2.7986   3.3425   3.6756   4.2143
     4.4076   4.5187   4.9265   5.1740   5.9714   6.9696   7.9124   9.8022
    10.0770  15.6317

          k =-0.4986 0.2394-0.1938 (  3915 PWs)   bands (ev):

   -72.8835 -42.3099 -41.5257 -41.0037 -10.7205 -10.4692 -10.2548 -10.0232
     1.0924   1.3117   2.1814   2.5350   2.6901   3.0020   3.4678   4.1331
     4.2836   4.4842   4.8798   5.0984   5.9684   7.0981   7.9009   9.6085
    10.0704  16.0470

          k =-0.4989 0.2399-0.0061 (  3927 PWs)   bands (ev):

   -72.8836 -42.3099 -41.5257 -41.0037 -10.6797 -10.4575 -10.2633 -10.0612
     0.8995   1.2666   1.9642   2.2340   2.7990   3.3425   3.6759   4.2138
     4.4082   4.5190   4.9261   5.1738   5.9715   6.9696   7.9124   9.8017
    10.0772  15.6306

          k =-0.5002-0.1176 0.4711 (  3926 PWs)   bands (ev):

   -72.8836 -42.3099 -41.5257 -41.0037 -10.6346 -10.4379 -10.2807 -10.1023
     0.7118   1.2101   1.8410   2.2725   2.5852   3.4991   3.9002   4.2680
     4.5364   4.7642   4.8078   5.3316   5.9765   6.7968   7.9285   9.9963
    10.1062  15.2987

          k =-0.5005-0.1171 0.6587 (  3915 PWs)   bands (ev):

   -72.8836 -42.3099 -41.5257 -41.0037 -10.6805 -10.4549 -10.2659 -10.0604
     0.9151   1.2299   1.9715   2.3754   2.5959   3.4247   3.6788   4.2286
     4.4032   4.5183   4.9155   5.1655   5.9731   6.9651   7.9127   9.8131
    10.0636  15.8410

          k =-0.4996-0.1184 0.0958 (  3930 PWs)   bands (ev):

   -72.8835 -42.3099 -41.5257 -41.0037 -10.7187 -10.4751 -10.2491 -10.0249
     1.0787   1.3428   2.2142   2.4469   2.6490   3.1043   3.3971   4.1567
     4.3489   4.4912   4.8997   5.0371   5.9640   7.0939   7.9006   9.5982
    10.0785  16.0919

     the Fermi energy is     7.0457 ev

!    total energy              =    -520.62079942 Ry
     total all-electron energy =     -3720.874058 Ry
     estimated scf accuracy    <          8.2E-09 Ry
     smearing contrib. (-TS)   =      -0.00491935 Ry
     internal energy E=F+TS    =    -520.61588007 Ry

     The total energy is F=E-TS. E is the sum of the following terms:
     one-electron contribution =    -240.55463109 Ry
     hartree contribution      =     145.35007481 Ry
     xc contribution           =     -61.24968814 Ry
     ewald contribution        =    -185.66555682 Ry
     Hubbard energy            =       0.24479359 Ry
     one-center paw contrib.   =    -178.74087241 Ry

     convergence has been achieved in   7 iterations
     force_hub    :    210.06s CPU     29.40s WALL (      14 calls)
     dndtau       :    184.84s CPU     25.94s WALL (   10584 calls)
     dprojdtau    :     27.28s CPU      4.09s WALL (   10584 calls)
     calc_doverla :    101.17s CPU     13.88s WALL (   10584 calls)
     matel_dSdtau :    134.55s CPU     18.61s WALL (   21168 calls)

     Forces acting on atoms (cartesian axes, Ry/au):

     atom    1 type  1   force =    -0.00003592   -0.00022863   -0.00001803
     atom    2 type  1   force =     0.00001756   -0.00013854    0.00027318
     atom    3 type  3   force =     0.00001313   -0.00004079   -0.00031600
     atom    4 type  2   force =    -0.00006623    0.00026794    0.00016255
     atom    5 type  2   force =     0.00002051    0.00036250    0.00020261
     atom    6 type  2   force =    -0.00003206   -0.00004681   -0.00021989
     atom    7 type  2   force =     0.00008302   -0.00017568   -0.00008442

     Total force =     0.000788     Total SCF correction =     0.000159
     SCF correction compared to forces is large: reduce conv_thr to get better values


     Computing stress (Cartesian axis) and pressure

     stres_hub    :    582.55s CPU     75.08s WALL (      14 calls)
     dprojdepsilo :    477.27s CPU     61.21s WALL (    4536 calls)
     dprojdeps1   :     48.77s CPU      6.84s WALL (    4536 calls)
     dprojdeps2   :    273.28s CPU     34.18s WALL (    4536 calls)
     dprojdeps3   :    155.12s CPU     20.17s WALL (    4536 calls)
          total   stress  (Ry/bohr**3)                   (kbar)     P=       -0.04
  -0.00000504  -0.00000019  -0.00000024           -0.74       -0.03       -0.04
  -0.00000019   0.00000205  -0.00000092           -0.03        0.30       -0.14
  -0.00000024  -0.00000092   0.00000221           -0.04       -0.14        0.32

     Energy error            =      3.0E-06 Ry
     Gradient error          =      3.6E-04 Ry/Bohr
     Cell gradient error     =      7.4E-01 kbar

     number of scf cycles    =  14
     number of bfgs steps    =  13

     enthalpy           old  =    -520.6207964291 Ry
     enthalpy           new  =    -520.6207994235 Ry

     CASE: enthalpy          _new < enthalpy          _old

     new trust radius        =       0.0015941427 bohr
     new conv_thr            =       0.0000000100 Ry

     new unit-cell volume =    487.66433 a.u.^3 (    72.26440 Ang^3 )
     density =      3.84994 g/cm^3

CELL_PARAMETERS (angstrom)
   2.962098433  -0.004939436   0.004420952
   1.491341275   6.187555343  -0.012421833
   2.961634305   3.179031030   3.938111521

ATOMIC_POSITIONS (angstrom)
Mg               3.4434499327        4.7979702488        1.4555330285
Mg               0.4765784582        1.1115436619        0.3392018503
Mn               4.9186690760        2.3330310721        2.5365420246
O                3.4462588417        6.9093191555        1.8223325051
O                4.9214245130        4.3075764133        2.8664049664
O                3.4402227477        2.7959497824        1.3629514931
O                4.9263120490        8.4133864236        3.8983366757



     Writing config-only to output data dir .\out\\qgan.save\ :
     XML data file
     NEW-OLD atomic charge density approx. for the potential
     New effective cutoffs (rho, wfc):  494.98   61.92

     Check: negative core charge=   -0.000002

     Atomic wfc used for Hubbard projectors are orthogonalized


     total cpu time spent up to now is      632.2 secs

     Self-consistent Calculation

     iteration #  1     ecut=    60.00 Ry     beta= 0.70
     Davidson diagonalization with overlap
     ethr =  1.00E-06,  avg # of iterations =  2.1

     =================== HUBBARD OCCUPATIONS ===================
     ------------------------ ATOM    3 ------------------------
     Tr[ns(  3)] =   5.23642
     eigenvalues:
       0.219  0.312  0.399  0.712  0.976
     eigenvectors (columns):
       0.535 -0.002 -0.208  0.000 -0.819
      -0.001  0.965  0.001  0.263 -0.003
      -0.806 -0.001 -0.417 -0.000 -0.420
       0.254  0.003 -0.885 -0.002  0.391
      -0.001  0.263  0.003 -0.965 -0.002
     occupation matrix ns (before diag.):
       0.734  0.002  0.276 -0.209  0.001
       0.002  0.339  0.001 -0.001 -0.102
       0.276  0.001  0.384 -0.058  0.000
      -0.209 -0.001 -0.058  0.476  0.000
       0.001 -0.102  0.000  0.000  0.685

     Number of occupied Hubbard levels =    5.2364

     Threshold (ethr) on eigenvalues was too large:
     Diagonalizing with lowered threshold

     Davidson diagonalization with overlap
     ethr =  1.11E-08,  avg # of iterations =  8.3

     total cpu time spent up to now is      639.1 secs

     total energy              =    -520.62080034 Ry
     estimated scf accuracy    <       0.00000192 Ry

     iteration #  2     ecut=    60.00 Ry     beta= 0.70
     Davidson diagonalization with overlap
     ethr =  4.46E-09,  avg # of iterations =  2.0

     total cpu time spent up to now is      641.4 secs

     total energy              =    -520.62080009 Ry
     estimated scf accuracy    <       0.00000200 Ry

     iteration #  3     ecut=    60.00 Ry     beta= 0.70
     Davidson diagonalization with overlap
     ethr =  4.46E-09,  avg # of iterations =  2.0

     total cpu time spent up to now is      643.7 secs

     total energy              =    -520.62080025 Ry
     estimated scf accuracy    <       0.00000308 Ry

     iteration #  4     ecut=    60.00 Ry     beta= 0.70
     Davidson diagonalization with overlap
     ethr =  4.46E-09,  avg # of iterations =  2.0

     total cpu time spent up to now is      645.9 secs

     total energy              =    -520.62080056 Ry
     estimated scf accuracy    <       0.00000196 Ry

     iteration #  5     ecut=    60.00 Ry     beta= 0.70
     Davidson diagonalization with overlap
     ethr =  4.46E-09,  avg # of iterations =  1.0

     total cpu time spent up to now is      647.9 secs

     total energy              =    -520.62080078 Ry
     estimated scf accuracy    <       0.00000003 Ry

     iteration #  6     ecut=    60.00 Ry     beta= 0.70
     Davidson diagonalization with overlap
     ethr =  6.27E-11,  avg # of iterations = 12.0

     total cpu time spent up to now is      652.3 secs

     total energy              =    -520.62080085 Ry
     estimated scf accuracy    <       0.00000004 Ry

     iteration #  7     ecut=    60.00 Ry     beta= 0.70
     Davidson diagonalization with overlap
     ethr =  6.27E-11,  avg # of iterations =  1.9

     total cpu time spent up to now is      654.6 secs

     End of self-consistent calculation

     =================== HUBBARD OCCUPATIONS ===================
     ------------------------ ATOM    3 ------------------------
     Tr[ns(  3)] =   5.23661
     eigenvalues:
       0.219  0.312  0.399  0.712  0.976
     eigenvectors (columns):
       0.535 -0.002 -0.209  0.000 -0.819
      -0.001  0.965  0.001  0.263 -0.003
      -0.806 -0.002 -0.417  0.000 -0.420
       0.254  0.003 -0.885 -0.003  0.391
      -0.001  0.263  0.003 -0.965 -0.002
     occupation matrix ns (before diag.):
       0.734  0.002  0.276 -0.209  0.001
       0.002  0.339  0.001 -0.001 -0.102
       0.276  0.001  0.384 -0.058  0.000
      -0.209 -0.001 -0.058  0.476  0.000
       0.001 -0.102  0.000  0.000  0.685

     Number of occupied Hubbard levels =    5.2366

          k = 0.0000 0.0000 0.0000 (  3893 PWs)   bands (ev):

   -72.8899 -42.3173 -41.5382 -40.9266 -11.8816 -10.5534 -10.2839 -10.0600
     0.8175   1.4927   2.2389   2.7001   3.0749   3.9151   4.0944   4.3634
     4.6260   5.4140   5.6214   5.6717   6.0582   7.1385   7.9953  10.0753
    10.3360  11.7295

          k =-0.0003 0.0004 0.1876 (  3895 PWs)   bands (ev):

   -72.8899 -42.3174 -41.5382 -40.9266 -11.6850 -10.7083 -10.3546 -10.0981
     1.0146   1.7986   1.9767   3.0769   3.0815   3.8773   4.0198   4.4745
     4.5948   4.9616   5.5661   5.5955   5.7593   7.0963   8.0980   9.7848
    10.3777  12.8466

          k = 0.0006-0.0009-0.3753 (  3896 PWs)   bands (ev):

   -72.8898 -42.3174 -41.5382 -40.9266 -11.3547 -10.9823 -10.4263 -10.1514
     1.2722   1.8277   2.5160   3.0132   3.0730   3.4798   3.8716   4.5483
     4.5648   4.8288   5.4768   5.5148   5.6264   7.0532   8.1810   9.5425
    10.4203  14.4646

          k = 0.0003 0.1192-0.0965 (  3890 PWs)   bands (ev):

   -72.8899 -42.3173 -41.5382 -40.9266 -11.7767 -10.5807 -10.4196 -10.0433
     1.0395   1.5132   2.1946   2.7950   3.1099   3.9361   4.1117   4.3104
     4.6871   5.0205   5.4811   5.6239   6.0619   7.1627   7.9893  10.1407
    10.3758  12.5190

          k = 0.0001 0.1197 0.0911 (  3904 PWs)   bands (ev):

   -72.8899 -42.3174 -41.5382 -40.9266 -11.7296 -10.7901 -10.2470 -10.0531
     0.9519   1.7945   2.1054   2.8926   3.0425   3.8033   3.9155   4.4797
     4.6127   5.2146   5.5773   5.5804   5.8372   7.1332   8.0944   9.7908
    10.3370  12.4943

          k = 0.0009 0.1184-0.4718 (  3922 PWs)   bands (ev):

   -72.8899 -42.3174 -41.5382 -40.9266 -11.4050 -11.0625 -10.3258 -10.0943
     1.3099   1.6545   2.4289   3.0413   3.1496   3.5070   3.8984   4.3290
     4.5831   5.0768   5.4356   5.4922   5.6730   7.0895   8.1980   9.5531
    10.3795  13.8561

          k = 0.0006 0.1188-0.2842 (  3907 PWs)   bands (ev):

   -72.8898 -42.3174 -41.5382 -40.9266 -11.5325 -10.7876 -10.4843 -10.0835
     1.2369   1.7891   2.2192   2.9688   3.1097   3.8303   3.8951   4.4293
     4.5012   4.8967   5.4427   5.5431   5.7659   7.1233   8.1187   9.8635
    10.4174  14.0928

          k =-0.0007-0.2385 0.1930 (  3908 PWs)   bands (ev):

   -72.8899 -42.3173 -41.5382 -40.9266 -11.6428 -10.6792 -10.5089 -10.0298
     1.0172   1.8608   2.3993   2.8191   3.1476   3.6035   3.9608   4.2523
     4.5753   4.9922   5.4721   5.5753   6.0630   7.1871   7.9810  10.2103
    10.4151  13.8332

          k =-0.0010-0.2381 0.3807 (  3904 PWs)   bands (ev):

   -72.8899 -42.3174 -41.5382 -40.9266 -11.5910 -10.8599 -10.3705 -10.0410
     1.3390   1.7475   2.0050   2.9052   3.0733   3.8036   3.9374   4.4331
     4.7313   4.8771   5.4292   5.5255   5.8030   7.1585   8.1253   9.8747
    10.3769  13.4181

          k =-0.0001-0.2394-0.1823 (  3900 PWs)   bands (ev):

   -72.8899 -42.3174 -41.5382 -40.9266 -11.4475 -11.1320 -10.2305 -10.0502
     1.1572   1.8286   2.3143   3.0115   3.0263   3.7064   3.9271   4.0933
     4.5940   5.1755   5.4758   5.5511   5.7301   7.1241   8.1643   9.5433
    10.3386  13.7580

          k = 0.2498-0.0605-0.1390 (  3913 PWs)   bands (ev):

   -72.8870 -42.3143 -41.5326 -40.9656 -11.3241 -10.5807 -10.2141 -10.0424
     1.4048   1.6747   2.1270   2.4318   2.7794   3.0131   3.8350   4.0074
     4.2792   5.0094   5.2981   5.5089   6.1170   6.9792   8.0186   9.6891
    10.1020  13.9402

          k = 0.2495-0.0600 0.0486 (  3893 PWs)   bands (ev):

   -72.8870 -42.3143 -41.5326 -40.9656 -11.4231 -10.4538 -10.2596 -10.0089
     1.4215   1.8125   2.0447   2.4451   2.8255   2.8667   3.7098   3.9867
     4.2870   5.0269   5.3843   5.5585   6.0426   7.0691   7.9462   9.7566
    10.0774  13.5871

          k = 0.2503-0.0614-0.5143 (  3920 PWs)   bands (ev):

   -72.8870 -42.3143 -41.5326 -40.9656 -11.2283 -10.5499 -10.3462 -10.0618
     1.3236   1.6828   2.2007   2.5533   2.6738   3.0077   3.9970   4.1212
     4.3869   4.9230   5.0539   5.4743   6.1596   6.9678   8.0147   9.6450
    10.0330  14.7102

          k = 0.2501-0.0609-0.3267 (  3917 PWs)   bands (ev):

   -72.8870 -42.3144 -41.5326 -40.9656 -11.0428 -10.7622 -10.2972 -10.1009
     1.3356   1.6518   2.0955   2.4461   2.7316   3.3566   3.9179   4.2000
     4.3831   4.8542   4.9991   5.4600   6.1822   6.8913   8.0824   9.8094
     9.8565  15.1028

          k = 0.2501 0.0588-0.2355 (  3919 PWs)   bands (ev):

   -72.8870 -42.3143 -41.5326 -40.9656 -11.2282 -10.5499 -10.3462 -10.0618
     1.3240   1.6828   2.2009   2.5525   2.6740   3.0077   3.9967   4.1212
     4.3869   4.9232   5.0539   5.4742   6.1597   6.9684   8.0141   9.6459
    10.0324  14.7099

          k = 0.2498 0.0592-0.0479 (  3898 PWs)   bands (ev):

   -72.8870 -42.3143 -41.5326 -40.9656 -11.4231 -10.4538 -10.2596 -10.0089
     1.4216   1.8125   2.0444   2.4452   2.8250   2.8673   3.7097   3.9867
     4.2869   5.0267   5.3844   5.5586   6.0426   7.0692   7.9461   9.7566
    10.0774  13.5870

          k = 0.2507 0.0579-0.6108 (  3912 PWs)   bands (ev):

   -72.8870 -42.3143 -41.5326 -40.9656 -11.3242 -10.5807 -10.2142 -10.0424
     1.4045   1.6747   2.1270   2.4315   2.7800   3.0131   3.8351   4.0078
     4.2791   5.0092   5.2977   5.5091   6.1172   6.9789   8.0188   9.6884
    10.1024  13.9403

          k = 0.2504 0.0583-0.4232 (  3914 PWs)   bands (ev):

   -72.8870 -42.3144 -41.5326 -40.9656 -11.0428 -10.7622 -10.2972 -10.1009
     1.3357   1.6517   2.0956   2.4462   2.7314   3.3566   3.9182   4.2000
     4.3829   4.8543   4.9988   5.4601   6.1823   6.8914   8.0823   9.8100
     9.8559  15.1028

          k = 0.2491-0.2990 0.0540 (  3925 PWs)   bands (ev):

   -72.8870 -42.3143 -41.5326 -40.9656 -11.1582 -10.6488 -10.3434 -10.0468
     1.4700   1.8444   2.1100   2.4649   2.6729   3.1205   3.7054   4.0359
     4.3741   4.8954   5.1097   5.5284   6.1525   6.9790   8.0294   9.6615
    10.1168  14.7111

          k = 0.2488-0.2985 0.2417 (  3915 PWs)   bands (ev):

   -72.8870 -42.3143 -41.5326 -40.9656 -11.2898 -10.4743 -10.4039 -10.0119
     1.3833   1.9719   2.2625   2.5103   2.6653   2.8885   3.5489   3.9474
     4.4762   4.9092   5.1576   5.5865   6.1122   7.0835   7.9341   9.7051
    10.0823  14.4971

          k = 0.2497-0.2999-0.3213 (  3912 PWs)   bands (ev):

   -72.8870 -42.3143 -41.5326 -40.9656 -11.2724 -10.6436 -10.2256 -10.0309
     1.6118   1.7828   1.9360   2.5644   2.7877   3.0474   3.5669   3.8869
     4.1479   5.0684   5.3483   5.5684   6.1071   6.9833   8.0303   9.7176
    10.1863  13.8663

          k = 0.2494-0.2994-0.1336 (  3920 PWs)   bands (ev):

   -72.8870 -42.3144 -41.5326 -40.9656 -11.0642 -10.8667 -10.1963 -10.0612
     1.5722   1.7182   1.9742   2.5660   2.7522   3.1029   3.5072   4.1671
     4.2885   4.8402   5.3148   5.5379   6.1538   6.8921   8.0961   9.9080
     9.9414  14.6188

          k = 0.2494-0.1797-0.0425 (  3913 PWs)   bands (ev):

   -72.8870 -42.3143 -41.5326 -40.9656 -11.2723 -10.6437 -10.2256 -10.0310
     1.6121   1.7829   1.9361   2.5647   2.7873   3.0467   3.5670   3.8864
     4.1484   5.0684   5.3482   5.5685   6.1071   6.9836   8.0300   9.7182
    10.1859  13.8663

          k = 0.2492-0.1793 0.1451 (  3921 PWs)   bands (ev):

   -72.8870 -42.3143 -41.5326 -40.9656 -11.2898 -10.4743 -10.4040 -10.0119
     1.3833   1.9718   2.2626   2.5108   2.6648   2.8885   3.5487   3.9474
     4.4763   4.9090   5.1576   5.5865   6.1122   7.0834   7.9341   9.7050
    10.0822  14.4972

          k = 0.2500-0.1806-0.4178 (  3924 PWs)   bands (ev):

   -72.8870 -42.3143 -41.5326 -40.9656 -11.1582 -10.6488 -10.3434 -10.0468
     1.4695   1.8444   2.1099   2.4651   2.6732   3.1209   3.7052   4.0363
     4.3738   4.8956   5.1098   5.5283   6.1523   6.9784   8.0299   9.6608
    10.1174  14.7114

          k = 0.2497-0.1802-0.2302 (  3913 PWs)   bands (ev):

   -72.8870 -42.3144 -41.5326 -40.9656 -11.0642 -10.8667 -10.1964 -10.0612
     1.5723   1.7180   1.9742   2.5658   2.7526   3.1029   3.5071   4.1674
     4.2884   4.8402   5.3150   5.5377   6.1538   6.8921   8.0961   9.9076
     9.9419  14.6188

          k =-0.4996 0.1210 0.2780 (  3924 PWs)   bands (ev):

   -72.8847 -42.3113 -41.5271 -41.0043 -10.6360 -10.4374 -10.2827 -10.1028
     0.7106   1.2104   1.8405   2.2709   2.5843   3.4974   3.8996   4.2672
     4.5356   4.7621   4.8057   5.3297   5.9766   6.7954   7.9270   9.9962
    10.1047  15.2986

          k =-0.4998 0.1214 0.4657 (  3919 PWs)   bands (ev):

   -72.8847 -42.3113 -41.5271 -41.0043 -10.6818 -10.4545 -10.2676 -10.0611
     0.9141   1.2297   1.9704   2.3744   2.5954   3.4237   3.6772   4.2285
     4.4020   4.5168   4.9132   5.1628   5.9732   6.9637   7.9112   9.8120
    10.0628  15.8415

          k =-0.4990 0.1201-0.0973 (  3936 PWs)   bands (ev):

   -72.8846 -42.3113 -41.5271 -41.0044 -10.7199 -10.4749 -10.2507 -10.0257
     1.0779   1.3423   2.2135   2.4452   2.6489   3.1023   3.3971   4.1550
     4.3490   4.4904   4.8964   5.0342   5.9641   7.0926   7.8989   9.5968
    10.0780  16.0898

          k =-0.4992 0.2402 0.1815 (  3933 PWs)   bands (ev):

   -72.8847 -42.3113 -41.5271 -41.0043 -10.6358 -10.4381 -10.2818 -10.1033
     0.7754   1.1126   1.8481   2.2706   2.5734   3.6501   3.8608   4.2015
     4.5277   4.7501   4.8166   5.3252   5.9752   6.7987   7.9217  10.0109
    10.0800  15.6083

          k =-0.4995 0.2407 0.3692 (  3926 PWs)   bands (ev):

   -72.8847 -42.3113 -41.5271 -41.0043 -10.6811 -10.4570 -10.2652 -10.0618
     0.8984   1.2667   1.9634   2.2331   2.7974   3.3413   3.6750   4.2137
     4.4066   4.5175   4.9240   5.1714   5.9716   6.9684   7.9106   9.8010
    10.0764  15.6306

          k =-0.4987 0.2393-0.1938 (  3915 PWs)   bands (ev):

   -72.8846 -42.3113 -41.5271 -41.0043 -10.7218 -10.4689 -10.2564 -10.0240
     1.0918   1.3111   2.1805   2.5341   2.6890   3.0005   3.4675   4.1317
     4.2826   4.4837   4.8771   5.0957   5.9685   7.0970   7.8991   9.6073
    10.0698  16.0473

          k =-0.4989 0.2398-0.0061 (  3927 PWs)   bands (ev):

   -72.8847 -42.3113 -41.5271 -41.0043 -10.6810 -10.4571 -10.2650 -10.0619
     0.8987   1.2663   1.9633   2.2329   2.7978   3.3412   3.6752   4.2132
     4.4069   4.5178   4.9236   5.1713   5.9717   6.9685   7.9106   9.8005
    10.0766  15.6302

          k =-0.5003-0.1175 0.4711 (  3926 PWs)   bands (ev):

   -72.8847 -42.3113 -41.5271 -41.0043 -10.6360 -10.4374 -10.2825 -10.1029
     0.7110   1.2099   1.8404   2.2713   2.5842   3.4977   3.8995   4.2669
     4.5358   4.7621   4.8055   5.3297   5.9766   6.7956   7.9269   9.9954
    10.1053  15.2980

          k =-0.5005-0.1171 0.6587 (  3915 PWs)   bands (ev):

   -72.8847 -42.3113 -41.5271 -41.0043 -10.6818 -10.4545 -10.2676 -10.0611
     0.9143   1.2296   1.9704   2.3744   2.5952   3.4237   3.6776   4.2279
     4.4021   4.5169   4.9132   5.1629   5.9733   6.9640   7.9110   9.8119
    10.0629  15.8411

          k =-0.4997-0.1184 0.0958 (  3930 PWs)   bands (ev):

   -72.8846 -42.3113 -41.5271 -41.0043 -10.7199 -10.4748 -10.2508 -10.0256
     1.0780   1.3424   2.2135   2.4454   2.6486   3.1025   3.3969   4.1551
     4.3485   4.4907   4.8964   5.0346   5.9642   7.0928   7.8988   9.5971
    10.0779  16.0909

     the Fermi energy is     7.0446 ev

!    total energy              =    -520.62080085 Ry
     total all-electron energy =     -3720.874059 Ry
     estimated scf accuracy    <          4.7E-09 Ry
     smearing contrib. (-TS)   =      -0.00491576 Ry
     internal energy E=F+TS    =    -520.61588509 Ry

     The total energy is F=E-TS. E is the sum of the following terms:
     one-electron contribution =    -240.57038466 Ry
     hartree contribution      =     145.35615656 Ry
     xc contribution           =     -61.24944903 Ry
     ewald contribution        =    -185.65613749 Ry
     Hubbard energy            =       0.24477833 Ry
     one-center paw contrib.   =    -178.74084881 Ry

     convergence has been achieved in   7 iterations
     force_hub    :    225.11s CPU     31.51s WALL (      15 calls)
     dndtau       :    197.95s CPU     27.80s WALL (   11340 calls)
     dprojdtau    :     28.45s CPU      4.37s WALL (   11340 calls)
     calc_doverla :    108.41s CPU     14.88s WALL (   11340 calls)
     matel_dSdtau :    144.38s CPU     19.98s WALL (   22680 calls)

     Forces acting on atoms (cartesian axes, Ry/au):

     atom    1 type  1   force =    -0.00005543   -0.00014853   -0.00006504
     atom    2 type  1   force =     0.00001711   -0.00023343    0.00016924
     atom    3 type  3   force =     0.00000379   -0.00011541    0.00001445
     atom    4 type  2   force =    -0.00002643    0.00014019    0.00010254
     atom    5 type  2   force =    -0.00000245    0.00021609   -0.00010253
     atom    6 type  2   force =    -0.00001671    0.00018312   -0.00001279
     atom    7 type  2   force =     0.00008013   -0.00004202   -0.00010586

     Total force =     0.000517     Total SCF correction =     0.000186
     SCF correction compared to forces is large: reduce conv_thr to get better values


     Computing stress (Cartesian axis) and pressure

     stres_hub    :    624.70s CPU     80.39s WALL (      15 calls)
     dprojdepsilo :    511.95s CPU     65.52s WALL (    4860 calls)
     dprojdeps1   :     52.55s CPU      7.32s WALL (    4860 calls)
     dprojdeps2   :    292.58s CPU     36.58s WALL (    4860 calls)
     dprojdeps3   :    166.73s CPU     21.60s WALL (    4860 calls)
          total   stress  (Ry/bohr**3)                   (kbar)     P=       -0.15
  -0.00000362   0.00000009  -0.00000025           -0.53        0.01       -0.04
   0.00000009   0.00000012  -0.00000034            0.01        0.02       -0.05
  -0.00000025  -0.00000034   0.00000051           -0.04       -0.05        0.07

     Energy error            =      1.4E-06 Ry
     Gradient error          =      2.3E-04 Ry/Bohr
     Cell gradient error     =      5.3E-01 kbar

     number of scf cycles    =  15
     number of bfgs steps    =  14

     enthalpy           old  =    -520.6207994235 Ry
     enthalpy           new  =    -520.6208008496 Ry

     CASE: enthalpy          _new < enthalpy          _old

     new trust radius        =       0.0006900191 bohr
     new conv_thr            =       0.0000000100 Ry

     new unit-cell volume =    487.63769 a.u.^3 (    72.26045 Ang^3 )
     density =      3.85015 g/cm^3

CELL_PARAMETERS (angstrom)
   2.961649479  -0.004984066   0.004416463
   1.491015895   6.188076087  -0.012569959
   2.961129864   3.179173178   3.938068585

ATOMIC_POSITIONS (angstrom)
Mg               3.4428809448        4.7981178673        1.4553992878
Mg               0.4765160974        1.1113669322        0.3394338203
Mn               4.9178644306        2.3331738138        2.5363386983
O                3.4455188134        6.9100137856        1.8223756128
O                4.9206564931        4.3079740793        2.8664041083
O                3.4396350189        2.7961696666        1.3626198153
O                4.9254587528        8.4139339167        3.8981016177



     Writing config-only to output data dir .\out\\qgan.save\ :
     XML data file
     NEW-OLD atomic charge density approx. for the potential
     New effective cutoffs (rho, wfc):  494.98   61.92

     Check: negative core charge=   -0.000002

     Atomic wfc used for Hubbard projectors are orthogonalized


     total cpu time spent up to now is      665.0 secs

     Self-consistent Calculation

     iteration #  1     ecut=    60.00 Ry     beta= 0.70
     Davidson diagonalization with overlap
     ethr =  1.00E-06,  avg # of iterations =  2.0

     =================== HUBBARD OCCUPATIONS ===================
     ------------------------ ATOM    3 ------------------------
     Tr[ns(  3)] =   5.23677
     eigenvalues:
       0.219  0.312  0.399  0.713  0.976
     eigenvectors (columns):
       0.535 -0.002 -0.209  0.000 -0.819
      -0.001  0.965  0.001  0.263 -0.003
      -0.806 -0.002 -0.417  0.000 -0.420
       0.254  0.003 -0.885 -0.003  0.391
      -0.001  0.263  0.003 -0.965 -0.002
     occupation matrix ns (before diag.):
       0.734  0.002  0.276 -0.209  0.001
       0.002  0.339  0.001 -0.001 -0.102
       0.276  0.001  0.384 -0.058  0.000
      -0.209 -0.001 -0.058  0.476  0.000
       0.001 -0.102  0.000  0.000  0.685

     Number of occupied Hubbard levels =    5.2368

     Threshold (ethr) on eigenvalues was too large:
     Diagonalizing with lowered threshold

     Davidson diagonalization with overlap
     ethr =  2.10E-09,  avg # of iterations =  8.7

     total cpu time spent up to now is      671.9 secs

     total energy              =    -520.62080120 Ry
     estimated scf accuracy    <       0.00000032 Ry

     iteration #  2     ecut=    60.00 Ry     beta= 0.70
     Davidson diagonalization with overlap
     ethr =  7.54E-10,  avg # of iterations =  4.1

     total cpu time spent up to now is      674.9 secs

     total energy              =    -520.62080103 Ry
     estimated scf accuracy    <       0.00000203 Ry

     iteration #  3     ecut=    60.00 Ry     beta= 0.70
     Davidson diagonalization with overlap
     ethr =  7.54E-10,  avg # of iterations =  2.1

     total cpu time spent up to now is      677.5 secs

     total energy              =    -520.62080124 Ry
     estimated scf accuracy    <       0.00000047 Ry

     iteration #  4     ecut=    60.00 Ry     beta= 0.70
     Davidson diagonalization with overlap
     ethr =  7.54E-10,  avg # of iterations =  2.1

     total cpu time spent up to now is      680.0 secs

     total energy              =    -520.62080132 Ry
     estimated scf accuracy    <       0.00000009 Ry

     iteration #  5     ecut=    60.00 Ry     beta= 0.70
     Davidson diagonalization with overlap
     ethr =  2.07E-10,  avg # of iterations =  2.9

     total cpu time spent up to now is      682.5 secs

     total energy              =    -520.62080134 Ry
     estimated scf accuracy    <       0.00000002 Ry

     iteration #  6     ecut=    60.00 Ry     beta= 0.70
     Davidson diagonalization with overlap
     ethr =  3.62E-11,  avg # of iterations =  5.5

     total cpu time spent up to now is      685.6 secs

     total energy              =    -520.62080135 Ry
     estimated scf accuracy    <       0.00000001 Ry

     iteration #  7     ecut=    60.00 Ry     beta= 0.70
     Davidson diagonalization with overlap
     ethr =  3.03E-11,  avg # of iterations =  1.9

     total cpu time spent up to now is      687.7 secs

     End of self-consistent calculation

     =================== HUBBARD OCCUPATIONS ===================
     ------------------------ ATOM    3 ------------------------
     Tr[ns(  3)] =   5.23667
     eigenvalues:
       0.219  0.312  0.399  0.713  0.976
     eigenvectors (columns):
       0.535 -0.002 -0.209 -0.000 -0.819
      -0.001  0.965  0.001  0.263 -0.003
      -0.806 -0.002 -0.417  0.000 -0.420
       0.254  0.003 -0.885 -0.003  0.391
      -0.001  0.263  0.003 -0.965 -0.002
     occupation matrix ns (before diag.):
       0.734  0.002  0.276 -0.209  0.001
       0.002  0.339  0.001 -0.001 -0.102
       0.276  0.001  0.384 -0.058  0.000
      -0.209 -0.001 -0.058  0.476  0.000
       0.001 -0.102  0.000  0.000  0.685

     Number of occupied Hubbard levels =    5.2367

          k = 0.0000 0.0000 0.0000 (  3893 PWs)   bands (ev):

   -72.8892 -42.3167 -41.5376 -40.9255 -11.8814 -10.5536 -10.2839 -10.0596
     0.8176   1.4924   2.2390   2.7004   3.0758   3.9165   4.0941   4.3648
     4.6264   5.4137   5.6219   5.6729   6.0587   7.1395   7.9961  10.0759
    10.3370  11.7308

          k =-0.0003 0.0004 0.1876 (  3895 PWs)   bands (ev):

   -72.8891 -42.3168 -41.5377 -40.9255 -11.6848 -10.7084 -10.3545 -10.0979
     1.0147   1.7987   1.9765   3.0779   3.0818   3.8788   4.0198   4.4756
     4.5945   4.9617   5.5668   5.5968   5.7596   7.0974   8.0987   9.7853
    10.3787  12.8480

          k = 0.0006-0.0009-0.3753 (  3896 PWs)   bands (ev):

   -72.8890 -42.3168 -41.5377 -40.9255 -11.3546 -10.9823 -10.4261 -10.1514
     1.2725   1.8278   2.5159   3.0133   3.0740   3.4796   3.8731   4.5482
     4.5656   4.8289   5.4774   5.5162   5.6265   7.0544   8.1816   9.5430
    10.4212  14.4672

          k = 0.0003 0.1192-0.0965 (  3890 PWs)   bands (ev):

   -72.8892 -42.3167 -41.5376 -40.9255 -11.7765 -10.5808 -10.4197 -10.0429
     1.0394   1.5131   2.1945   2.7953   3.1109   3.9376   4.1115   4.3116
     4.6869   5.0208   5.4813   5.6252   6.0625   7.1637   7.9901  10.1414
    10.3768  12.5202

          k = 0.0001 0.1197 0.0911 (  3904 PWs)   bands (ev):

   -72.8892 -42.3168 -41.5376 -40.9255 -11.7294 -10.7902 -10.2468 -10.0530
     0.9520   1.7942   2.1055   2.8930   3.0435   3.8029   3.9170   4.4809
     4.6129   5.2147   5.5786   5.5807   5.8373   7.1342   8.0951   9.7914
    10.3380  12.4956

          k = 0.0009 0.1183-0.4718 (  3922 PWs)   bands (ev):

   -72.8891 -42.3169 -41.5377 -40.9255 -11.4049 -11.0625 -10.3255 -10.0943
     1.3101   1.6546   2.4287   3.0424   3.1499   3.5068   3.8999   4.3292
     4.5840   5.0765   5.4359   5.4936   5.6732   7.0906   8.1987   9.5536
    10.3805  13.8574

          k = 0.0006 0.1188-0.2842 (  3907 PWs)   bands (ev):

   -72.8891 -42.3168 -41.5377 -40.9255 -11.5324 -10.7875 -10.4843 -10.0833
     1.2368   1.7894   2.2190   2.9689   3.1107   3.8303   3.8967   4.4303
     4.5010   4.8968   5.4429   5.5444   5.7664   7.1243   8.1194   9.8642
    10.4184  14.0947

          k =-0.0007-0.2385 0.1930 (  3908 PWs)   bands (ev):

   -72.8891 -42.3167 -41.5377 -40.9255 -11.6427 -10.6789 -10.5092 -10.0294
     1.0171   1.8608   2.3990   2.8195   3.1485   3.6036   3.9624   4.2534
     4.5747   4.9926   5.4723   5.5766   6.0635   7.1881   7.9817  10.2112
    10.4161  13.8348

          k =-0.0010-0.2380 0.3807 (  3904 PWs)   bands (ev):

   -72.8891 -42.3168 -41.5377 -40.9255 -11.5909 -10.8598 -10.3704 -10.0409
     1.3390   1.7473   2.0052   2.9055   3.0743   3.8033   3.9388   4.4341
     4.7316   4.8769   5.4293   5.5269   5.8034   7.1596   8.1260   9.8755
    10.3779  13.4192

          k =-0.0001-0.2394-0.1823 (  3900 PWs)   bands (ev):

   -72.8892 -42.3169 -41.5376 -40.9255 -11.4474 -11.1321 -10.2302 -10.0503
     1.1572   1.8288   2.3143   3.0126   3.0264   3.7062   3.9286   4.0937
     4.5949   5.1757   5.4772   5.5510   5.7303   7.1252   8.1650   9.5440
    10.3396  13.7590

          k = 0.2498-0.0605-0.1390 (  3913 PWs)   bands (ev):

   -72.8863 -42.3138 -41.5321 -40.9646 -11.3238 -10.5807 -10.2142 -10.0416
     1.4052   1.6753   2.1271   2.4320   2.7796   3.0132   3.8358   4.0075
     4.2796   5.0094   5.2980   5.5094   6.1179   6.9800   8.0192   9.6900
    10.1029  13.9418

          k = 0.2495-0.0600 0.0486 (  3893 PWs)   bands (ev):

   -72.8863 -42.3137 -41.5320 -40.9646 -11.4228 -10.4538 -10.2596 -10.0080
     1.4218   1.8128   2.0451   2.4454   2.8257   2.8669   3.7101   3.9876
     4.2870   5.0269   5.3842   5.5591   6.0435   7.0700   7.9469   9.7577
    10.0782  13.5886

          k = 0.2504-0.0614-0.5143 (  3920 PWs)   bands (ev):

   -72.8863 -42.3137 -41.5321 -40.9646 -11.2280 -10.5498 -10.3461 -10.0611
     1.3241   1.6832   2.2009   2.5536   2.6739   3.0078   3.9976   4.1219
     4.3867   4.9230   5.0540   5.4747   6.1606   6.9687   8.0152   9.6460
    10.0338  14.7121

          k = 0.2501-0.0609-0.3267 (  3917 PWs)   bands (ev):

   -72.8863 -42.3138 -41.5321 -40.9646 -11.0427 -10.7620 -10.2970 -10.1004
     1.3363   1.6521   2.0959   2.4463   2.7317   3.3563   3.9183   4.2008
     4.3834   4.8541   4.9993   5.4602   6.1831   6.8922   8.0829   9.8101
     9.8576  15.1052

          k = 0.2502 0.0588-0.2355 (  3919 PWs)   bands (ev):

   -72.8863 -42.3137 -41.5321 -40.9646 -11.2280 -10.5498 -10.3461 -10.0611
     1.3244   1.6832   2.2011   2.5529   2.6741   3.0077   3.9974   4.1219
     4.3866   4.9232   5.0542   5.4746   6.1606   6.9692   8.0148   9.6468
    10.0333  14.7119

          k = 0.2499 0.0592-0.0479 (  3898 PWs)   bands (ev):

   -72.8863 -42.3137 -41.5320 -40.9646 -11.4228 -10.4539 -10.2596 -10.0080
     1.4218   1.8128   2.0448   2.4455   2.8254   2.8673   3.7101   3.9877
     4.2868   5.0269   5.3842   5.5590   6.0435   7.0700   7.9468   9.7577
    10.0782  13.5885

          k = 0.2507 0.0579-0.6108 (  3912 PWs)   bands (ev):

   -72.8863 -42.3138 -41.5321 -40.9646 -11.3238 -10.5807 -10.2142 -10.0416
     1.4050   1.6753   2.1271   2.4318   2.7801   3.0133   3.8359   4.0079
     4.2795   5.0092   5.2977   5.5095   6.1180   6.9798   8.0194   9.6895
    10.1033  13.9419

          k = 0.2504 0.0583-0.4232 (  3914 PWs)   bands (ev):

   -72.8863 -42.3138 -41.5321 -40.9646 -11.0427 -10.7620 -10.2970 -10.1004
     1.3364   1.6520   2.0960   2.4464   2.7315   3.3563   3.9185   4.2008
     4.3832   4.8541   4.9991   5.4603   6.1832   6.8923   8.0829   9.8105
     9.8571  15.1052

          k = 0.2491-0.2989 0.0540 (  3925 PWs)   bands (ev):

   -72.8863 -42.3138 -41.5321 -40.9646 -11.1580 -10.6486 -10.3433 -10.0462
     1.4703   1.8448   2.1102   2.4652   2.6731   3.1208   3.7060   4.0364
     4.3739   4.8955   5.1099   5.5287   6.1534   6.9798   8.0301   9.6625
    10.1177  14.7126

          k = 0.2489-0.2985 0.2417 (  3915 PWs)   bands (ev):

   -72.8863 -42.3137 -41.5321 -40.9646 -11.2895 -10.4741 -10.4040 -10.0112
     1.3835   1.9720   2.2628   2.5109   2.6656   2.8886   3.5495   3.9482
     4.4758   4.9092   5.1576   5.5870   6.1131   7.0843   7.9347   9.7063
    10.0831  14.4988

          k = 0.2497-0.2998-0.3213 (  3912 PWs)   bands (ev):

   -72.8863 -42.3138 -41.5321 -40.9646 -11.2721 -10.6436 -10.2255 -10.0303
     1.6121   1.7829   1.9365   2.5646   2.7880   3.0476   3.5676   3.8873
     4.1481   5.0686   5.3480   5.5687   6.1080   6.9842   8.0309   9.7188
    10.1872  13.8678

          k = 0.2494-0.2994-0.1336 (  3920 PWs)   bands (ev):

   -72.8863 -42.3138 -41.5321 -40.9646 -11.0640 -10.8665 -10.1962 -10.0607
     1.5728   1.7186   1.9745   2.5663   2.7524   3.1030   3.5075   4.1677
     4.2890   4.8401   5.3147   5.5380   6.1547   6.8930   8.0967   9.9089
     9.9424  14.6205

          k = 0.2495-0.1797-0.0425 (  3913 PWs)   bands (ev):

   -72.8863 -42.3138 -41.5321 -40.9646 -11.2721 -10.6436 -10.2255 -10.0303
     1.6124   1.7831   1.9366   2.5648   2.7877   3.0470   3.5677   3.8868
     4.1485   5.0686   5.3480   5.5688   6.1080   6.9844   8.0306   9.7192
    10.1869  13.8677

          k = 0.2492-0.1793 0.1451 (  3921 PWs)   bands (ev):

   -72.8863 -42.3137 -41.5321 -40.9646 -11.2895 -10.4741 -10.4040 -10.0112
     1.3835   1.9719   2.2629   2.5113   2.6651   2.8886   3.5493   3.9482
     4.4760   4.9090   5.1577   5.5870   6.1131   7.0842   7.9348   9.7063
    10.0830  14.4988

          k = 0.2500-0.1806-0.4178 (  3924 PWs)   bands (ev):

   -72.8863 -42.3138 -41.5321 -40.9646 -11.1580 -10.6486 -10.3433 -10.0462
     1.4698   1.8448   2.1101   2.4654   2.6734   3.1212   3.7059   4.0367
     4.3737   4.8956   5.1099   5.5286   6.1533   6.9793   8.0305   9.6619
    10.1182  14.7129

          k = 0.2498-0.1802-0.2302 (  3913 PWs)   bands (ev):

   -72.8863 -42.3138 -41.5321 -40.9646 -11.0640 -10.8665 -10.1962 -10.0607
     1.5728   1.7185   1.9745   2.5662   2.7527   3.1030   3.5074   4.1680
     4.2889   4.8401   5.3149   5.5379   6.1547   6.8930   8.0967   9.9086
     9.9428  14.6205

          k =-0.4996 0.1210 0.2780 (  3924 PWs)   bands (ev):

   -72.8839 -42.3107 -41.5265 -41.0034 -10.6360 -10.4371 -10.2826 -10.1014
     0.7110   1.2104   1.8408   2.2710   2.5845   3.4971   3.9000   4.2673
     4.5363   4.7622   4.8060   5.3294   5.9784   6.7962   7.9274   9.9972
    10.1060  15.2992

          k =-0.4999 0.1214 0.4657 (  3919 PWs)   bands (ev):

   -72.8839 -42.3107 -41.5265 -41.0034 -10.6816 -10.4542 -10.2675 -10.0598
     0.9145   1.2296   1.9707   2.3746   2.5957   3.4237   3.6772   4.2287
     4.4026   4.5171   4.9132   5.1625   5.9751   6.9645   7.9117   9.8126
    10.0646  15.8430

          k =-0.4991 0.1201-0.0972 (  3936 PWs)   bands (ev):

   -72.8839 -42.3107 -41.5265 -41.0034 -10.7196 -10.4746 -10.2507 -10.0244
     1.0781   1.3422   2.2140   2.4453   2.6493   3.1025   3.3971   4.1552
     4.3497   4.4906   4.8960   5.0340   5.9659   7.0934   7.8994   9.5973
    10.0798  16.0912

          k =-0.4993 0.2402 0.1815 (  3933 PWs)   bands (ev):

   -72.8839 -42.3107 -41.5265 -41.0034 -10.6358 -10.4378 -10.2817 -10.1018
     0.7758   1.1126   1.8483   2.2709   2.5735   3.6496   3.8611   4.2016
     4.5282   4.7504   4.8169   5.3249   5.9770   6.7995   7.9221  10.0119
    10.0813  15.6095

          k =-0.4996 0.2406 0.3692 (  3926 PWs)   bands (ev):

   -72.8839 -42.3107 -41.5265 -41.0034 -10.6809 -10.4567 -10.2651 -10.0605
     0.8988   1.2666   1.9637   2.2333   2.7976   3.3413   3.6751   4.2142
     4.4070   4.5177   4.9239   5.1710   5.9734   6.9692   7.9111   9.8016
    10.0781  15.6315

          k =-0.4987 0.2393-0.1938 (  3915 PWs)   bands (ev):

   -72.8839 -42.3107 -41.5265 -41.0034 -10.7215 -10.4685 -10.2564 -10.0227
     1.0920   1.3111   2.1809   2.5346   2.6892   3.0007   3.4675   4.1319
     4.2832   4.4838   4.8769   5.0954   5.9704   7.0977   7.8996   9.6079
    10.0716  16.0490

          k =-0.4990 0.2397-0.0061 (  3927 PWs)   bands (ev):

   -72.8839 -42.3107 -41.5265 -41.0034 -10.6809 -10.4568 -10.2650 -10.0605
     0.8990   1.2663   1.9637   2.2332   2.7980   3.3412   3.6752   4.2138
     4.4072   4.5179   4.9236   5.1711   5.9735   6.9693   7.9111   9.8011
    10.0783  15.6314

          k =-0.5003-0.1175 0.4711 (  3926 PWs)   bands (ev):

   -72.8839 -42.3107 -41.5265 -41.0034 -10.6360 -10.4371 -10.2824 -10.1015
     0.7113   1.2100   1.8407   2.2714   2.5846   3.4973   3.8997   4.2669
     4.5364   4.7621   4.8058   5.3294   5.9784   6.7964   7.9274   9.9966
    10.1065  15.2990

          k =-0.5006-0.1171 0.6587 (  3915 PWs)   bands (ev):

   -72.8839 -42.3107 -41.5265 -41.0034 -10.6816 -10.4542 -10.2675 -10.0598
     0.9146   1.2295   1.9707   2.3746   2.5956   3.4238   3.6774   4.2283
     4.4026   4.5172   4.9132   5.1626   5.9751   6.9647   7.9115   9.8126
    10.0647  15.8425

          k =-0.4998-0.1184 0.0958 (  3930 PWs)   bands (ev):

   -72.8839 -42.3107 -41.5265 -41.0034 -10.7196 -10.4745 -10.2508 -10.0244
     1.0781   1.3423   2.2140   2.4455   2.6492   3.1027   3.3969   4.1553
     4.3492   4.4908   4.8959   5.0343   5.9660   7.0935   7.8993   9.5977
    10.0797  16.0919

     the Fermi energy is     7.0455 ev

!    total energy              =    -520.62080135 Ry
     total all-electron energy =     -3720.874060 Ry
     estimated scf accuracy    <          2.8E-09 Ry
     smearing contrib. (-TS)   =      -0.00491448 Ry
     internal energy E=F+TS    =    -520.61588686 Ry

     The total energy is F=E-TS. E is the sum of the following terms:
     one-electron contribution =    -240.57778644 Ry
     hartree contribution      =     145.36046927 Ry
     xc contribution           =     -61.24962948 Ry
     ewald contribution        =    -185.65284556 Ry
     Hubbard energy            =       0.24477748 Ry
     one-center paw contrib.   =    -178.74087213 Ry

     convergence has been achieved in   7 iterations
     force_hub    :    241.41s CPU     33.65s WALL (      16 calls)
     dndtau       :    212.42s CPU     29.71s WALL (   12096 calls)
     dprojdtau    :     30.47s CPU      4.64s WALL (   12096 calls)
     calc_doverla :    116.02s CPU     15.91s WALL (   12096 calls)
     matel_dSdtau :    154.70s CPU     21.33s WALL (   24192 calls)

     Forces acting on atoms (cartesian axes, Ry/au):

     atom    1 type  1   force =    -0.00005545   -0.00009125   -0.00002046
     atom    2 type  1   force =     0.00001209   -0.00015940    0.00007825
     atom    3 type  3   force =     0.00000215   -0.00008406    0.00003882
     atom    4 type  2   force =    -0.00000681    0.00004001    0.00005380
     atom    5 type  2   force =    -0.00000617    0.00013551   -0.00009848
     atom    6 type  2   force =    -0.00001527    0.00014304    0.00001115
     atom    7 type  2   force =     0.00006946    0.00001614   -0.00006307

     Total force =     0.000339     Total SCF correction =     0.000083
     SCF correction compared to forces is large: reduce conv_thr to get better values


     Computing stress (Cartesian axis) and pressure

     stres_hub    :    666.53s CPU     85.76s WALL (      16 calls)
     dprojdepsilo :    546.34s CPU     69.91s WALL (    5184 calls)
     dprojdeps1   :     56.84s CPU      7.78s WALL (    5184 calls)
     dprojdeps2   :    312.33s CPU     39.05s WALL (    5184 calls)
     dprojdeps3   :    177.05s CPU     23.05s WALL (    5184 calls)
          total   stress  (Ry/bohr**3)                   (kbar)     P=       -0.15
  -0.00000169   0.00000016  -0.00000016           -0.25        0.02       -0.02
   0.00000016  -0.00000046   0.00000014            0.02       -0.07        0.02
  -0.00000016   0.00000014  -0.00000085           -0.02        0.02       -0.12

     Energy error            =      5.0E-07 Ry
     Gradient error          =      1.6E-04 Ry/Bohr
     Cell gradient error     =      2.5E-01 kbar

     bfgs converged in  16 scf cycles and  15 bfgs steps
     (criteria: energy <  1.0E-04 Ry, force <  1.0E-03 Ry/Bohr, cell <  5.0E-01 kbar)

     End of BFGS Geometry Optimization

     Final enthalpy           =    -520.6208013461 Ry

     File .\out\\qgan.bfgs deleted, as requested
Begin final coordinates
     new unit-cell volume =    487.63769 a.u.^3 (    72.26045 Ang^3 )
     density =      3.85015 g/cm^3

CELL_PARAMETERS (angstrom)
   2.961649479  -0.004984066   0.004416463
   1.491015895   6.188076087  -0.012569959
   2.961129864   3.179173178   3.938068585

ATOMIC_POSITIONS (angstrom)
Mg               3.4428809448        4.7981178673        1.4553992878
Mg               0.4765160974        1.1113669322        0.3394338203
Mn               4.9178644306        2.3331738138        2.5363386983
O                3.4455188134        6.9100137856        1.8223756128
O                4.9206564931        4.3079740793        2.8664041083
O                3.4396350189        2.7961696666        1.3626198153
O                4.9254587528        8.4139339167        3.8981016177
End final coordinates



     Writing config-only to output data dir .\out\\qgan.save\ :
     XML data file

     Final scf calculation at the relaxed structure.
     The G-vectors are recalculated for the final unit cell
     Results may differ from those at the preceding step.
 
     G-vector sticks info
     --------------------
     sticks:   dense  smooth     PW     G-vecs:    dense   smooth      PW
     Sum        2499    1245    391                86583    30627    5417
 
     Using Slab Decomposition
 


     bravais-lattice index     =            0
     lattice parameter (alat)  =       5.5903  a.u.
     unit-cell volume          =     487.6377 (a.u.)^3
     number of atoms/cell      =            7
     number of atomic types    =            3
     number of electrons       =        43.00
     number of Kohn-Sham states=           26
     kinetic-energy cutoff     =      60.0000  Ry
     charge density cutoff     =     480.0000  Ry
     scf convergence threshold =      1.0E-08
     mixing beta               =       0.7000
     number of iterations used =            8  plain     mixing
     press convergence thresh. =      5.0E-01
     Exchange-correlation= SLA  PW   PBX  PBC
                           (   1   4   3   4   0   0   0)
     Hubbard projectors: ortho-atomic
     Hubbard parameters of DFT+U (Dudarev formulation) in eV:
     U(Mn-3d) =  3.9000

     Internal variables: lda_plus_u = T, lda_plus_u_kind = 0

     Internal variables: orbital_resolved = F, hub_pot_fix = F, apply_U =  F

     celldm(1)=   5.590314  celldm(2)=   0.000000  celldm(3)=   0.000000
     celldm(4)=   0.000000  celldm(5)=   0.000000  celldm(6)=   0.000000

     crystal axes: (cart. coord. in units of alat)
               a(1) = (   1.001143  -0.001685   0.001493 )  
               a(2) = (   0.504017   2.091791  -0.004249 )  
               a(3) = (   1.000968   1.074674   1.331208 )  

     reciprocal axes: (cart. coord. in units 2 pi/alat)
               b(1) = (  0.999280 -0.241906 -0.556094 )  
               b(2) = (  0.001378  0.476943 -0.386069 )  
               b(3) = ( -0.001116  0.001794  0.750589 )  


     PseudoPot. # 1 for Mg read from file:
     ..\..\pseudo\\Mg.pbe-n-kjpaw_psl.0.3.0.UPF
     MD5 check sum: d3e4124f57d03672d8f0e29aa18e2cc4
     Pseudo is Projector augmented-wave + core cor, Zval =  2.0
     Generated using &quot;atomic&quot; code by A. Dal Corso  v.6.3
     Shape of augmentation charge: PSQ
     Using radial grid of 1129 points,  4 beta functions with: 
                l(1) =   0
                l(2) =   0
                l(3) =   1
                l(4) =   1
     Q(r) pseudized with 0 coefficients 


     PseudoPot. # 2 for O  read from file:
     ..\..\pseudo\\O.pbe-n-kjpaw_psl.1.0.0.UPF
     MD5 check sum: e99d9cef9b487d1ca56f5b95ecd0fd7a
     Pseudo is Projector augmented-wave + core cor, Zval =  6.0
     Generated using &quot;atomic&quot; code by A. Dal Corso  v.6.3
     Shape of augmentation charge: PSQ
     Using radial grid of 1095 points,  4 beta functions with: 
                l(1) =   0
                l(2) =   0
                l(3) =   1
                l(4) =   1
     Q(r) pseudized with 0 coefficients 


     PseudoPot. # 3 for Mn read from file:
     ..\..\pseudo\\Mn.pbe-spn-kjpaw_psl.0.3.1.UPF
     MD5 check sum: ba19e6d7ccbc12830efad05ba8577d9c
     Pseudo is Projector augmented-wave + core cor, Zval = 15.0
     Generated using &quot;atomic&quot; code by A. Dal Corso  v.6.2.2
     Shape of augmentation charge: PSQ
     Using radial grid of 1187 points,  6 beta functions with: 
                l(1) =   0
                l(2) =   0
                l(3) =   1
                l(4) =   1
                l(5) =   2
                l(6) =   2
     Q(r) pseudized with 0 coefficients 


     atomic species   valence    mass     pseudopotential
     Mg                2.00    24.30500     Mg( 1.00)
     O                 6.00    15.99900     O ( 1.00)
     Mn               15.00    54.93800     Mn( 1.00)

     No symmetry found



   Cartesian axes

     site n.     atom                  positions (alat units)
         1        Mg     tau(   1) = (   1.1638168   1.6219354   0.4919770  )
         2        Mg     tau(   2) = (   0.1610795   0.3756818   0.1147408  )
         3        Mn     tau(   3) = (   1.6624140   0.7886962   0.8573732  )
         4        O      tau(   4) = (   1.1647085   2.3358317   0.6160281  )
         5        O      tau(   5) = (   1.6633578   1.4562492   0.9689471  )
         6        O      tau(   6) = (   1.1627196   0.9452053   0.4606142  )
         7        O      tau(   7) = (   1.6649811   2.8442105   1.3176977  )

     number of k points=    36  Marzari-Vanderbilt smearing, width (Ry)=  0.0200
                       cart. coord. in units 2pi/alat
        k(    1) = (   0.0000000   0.0000000   0.0000000), wk =   0.0312500
        k(    2) = (  -0.0002791   0.0004484   0.1876472), wk =   0.0625000
        k(    3) = (   0.0005581  -0.0008968  -0.3752944), wk =   0.0312500
        k(    4) = (   0.0003446   0.1192357  -0.0965172), wk =   0.0625000
        k(    5) = (   0.0000655   0.1196841   0.0911300), wk =   0.0625000
        k(    6) = (   0.0009027   0.1183389  -0.4718116), wk =   0.0625000
        k(    7) = (   0.0006237   0.1187873  -0.2841644), wk =   0.0625000
        k(    8) = (  -0.0006892  -0.2384715   0.1930344), wk =   0.0312500
        k(    9) = (  -0.0009682  -0.2380230   0.3806816), wk =   0.0625000
        k(   10) = (  -0.0001310  -0.2393683  -0.1822600), wk =   0.0312500
        k(   11) = (   0.2498200  -0.0604765  -0.1390235), wk =   0.0625000
        k(   12) = (   0.2495409  -0.0600281   0.0486236), wk =   0.0625000
        k(   13) = (   0.2503782  -0.0613733  -0.5143179), wk =   0.0625000
        k(   14) = (   0.2500991  -0.0609249  -0.3266707), wk =   0.0625000
        k(   15) = (   0.2501646   0.0587592  -0.2355408), wk =   0.0625000
        k(   16) = (   0.2498855   0.0592076  -0.0478936), wk =   0.0625000
        k(   17) = (   0.2507227   0.0578624  -0.6108351), wk =   0.0625000
        k(   18) = (   0.2504437   0.0583108  -0.4231880), wk =   0.0625000
        k(   19) = (   0.2491308  -0.2989479   0.0540109), wk =   0.0625000
        k(   20) = (   0.2488518  -0.2984995   0.2416581), wk =   0.0625000
        k(   21) = (   0.2496890  -0.2998448  -0.3212835), wk =   0.0625000
        k(   22) = (   0.2494099  -0.2993964  -0.1336363), wk =   0.0625000
        k(   23) = (   0.2494754  -0.1797122  -0.0425063), wk =   0.0625000
        k(   24) = (   0.2491964  -0.1792638   0.1451409), wk =   0.0625000
        k(   25) = (   0.2500336  -0.1806090  -0.4178007), wk =   0.0625000
        k(   26) = (   0.2497545  -0.1801606  -0.2301535), wk =   0.0625000
        k(   27) = (  -0.4996400   0.1209530   0.2780471), wk =   0.0312500
        k(   28) = (  -0.4999191   0.1214014   0.4656943), wk =   0.0625000
        k(   29) = (  -0.4990819   0.1200562  -0.0972473), wk =   0.0312500
        k(   30) = (  -0.4992954   0.2401887   0.1815299), wk =   0.0625000
        k(   31) = (  -0.4995745   0.2406371   0.3691771), wk =   0.0625000
        k(   32) = (  -0.4987373   0.2392919  -0.1937645), wk =   0.0625000
        k(   33) = (  -0.4990164   0.2397403  -0.0061173), wk =   0.0625000
        k(   34) = (  -0.5003292  -0.1175185   0.4710815), wk =   0.0312500
        k(   35) = (  -0.5006083  -0.1170701   0.6587287), wk =   0.0625000
        k(   36) = (  -0.4997711  -0.1184153   0.0957871), wk =   0.0312500

     Dense  grid:    86583 G-vectors     FFT dimensions: (  40,  90,  80)

     Smooth grid:    30627 G-vectors     FFT dimensions: (  27,  60,  60)

     Estimated max dynamical RAM per process >     409.60 MB

     Check: negative core charge=   -0.000002

     Initial potential from superposition of free atoms

     starting charge      42.9976, renormalised to      43.0000

     STARTING HUBBARD OCCUPATIONS:

     =================== HUBBARD OCCUPATIONS ===================
     ------------------------ ATOM    3 ------------------------
     Tr[ns(  3)] =   5.00000
     eigenvalues:
       0.500  0.500  0.500  0.500  0.500
     eigenvectors (columns):
       1.000  0.000  0.000  0.000  0.000
       0.000  1.000  0.000  0.000  0.000
       0.000  0.000  1.000  0.000  0.000
       0.000  0.000  0.000  1.000  0.000
       0.000  0.000  0.000  0.000  1.000
     occupation matrix ns (before diag.):
       0.500  0.000  0.000  0.000  0.000
       0.000  0.500  0.000  0.000  0.000
       0.000  0.000  0.500  0.000  0.000
       0.000  0.000  0.000  0.500  0.000
       0.000  0.000  0.000  0.000  0.500

     Number of occupied Hubbard levels =    5.0000

     Atomic wfc used for Hubbard projectors are orthogonalized

     Starting wfcs are   34 randomized atomic wfcs
     Checking if some PAW data can be deallocated... 

     total cpu time spent up to now is      699.0 secs

     Self-consistent Calculation

     iteration #  1     ecut=    60.00 Ry     beta= 0.70
     Davidson diagonalization with overlap
     c_bands:  5 eigenvalues not converged
     c_bands:  1 eigenvalues not converged
     c_bands:  1 eigenvalues not converged
     c_bands:  1 eigenvalues not converged
     c_bands:  1 eigenvalues not converged
     c_bands:  2 eigenvalues not converged
     c_bands:  1 eigenvalues not converged
     c_bands:  1 eigenvalues not converged
     c_bands:  1 eigenvalues not converged
     c_bands:  1 eigenvalues not converged
     c_bands:  1 eigenvalues not converged
     c_bands:  1 eigenvalues not converged
     c_bands:  1 eigenvalues not converged
     c_bands:  1 eigenvalues not converged
     c_bands:  1 eigenvalues not converged
     ethr =  1.00E-06,  avg # of iterations = 36.1

     =================== HUBBARD OCCUPATIONS ===================
     ------------------------ ATOM    3 ------------------------
     Tr[ns(  3)] =   4.09990
     eigenvalues:
       0.088  0.177  0.225  0.576  0.983
     eigenvectors (columns):
      -0.534  0.002  0.262  0.002 -0.804
       0.001 -0.966 -0.001  0.260 -0.003
       0.805  0.002  0.448  0.001 -0.389
      -0.258 -0.004  0.855 -0.004  0.450
       0.002 -0.260 -0.003 -0.966 -0.005
     occupation matrix ns (before diag.):
       0.676  0.002  0.296 -0.293  0.002
       0.002  0.204  0.001 -0.001 -0.100
       0.296  0.001  0.251 -0.104  0.001
      -0.293 -0.001 -0.104  0.369 -0.000
       0.002 -0.100  0.001 -0.000  0.549

     Number of occupied Hubbard levels =    4.0999

     total cpu time spent up to now is      711.7 secs

     total energy              =    -519.25837116 Ry
     estimated scf accuracy    <       2.42941848 Ry

     iteration #  2     ecut=    60.00 Ry     beta= 0.70
     Davidson diagonalization with overlap
     ethr =  5.65E-03,  avg # of iterations =  4.1

     total cpu time spent up to now is      714.5 secs

     total energy              =    -517.66975959 Ry
     estimated scf accuracy    <      30.52405094 Ry

     iteration #  3     ecut=    60.00 Ry     beta= 0.70
     Davidson diagonalization with overlap
     ethr =  5.65E-03,  avg # of iterations =  3.2

     total cpu time spent up to now is      716.9 secs

     total energy              =    -520.50652049 Ry
     estimated scf accuracy    <       0.60475739 Ry

     iteration #  4     ecut=    60.00 Ry     beta= 0.70
     Davidson diagonalization with overlap
     ethr =  1.41E-03,  avg # of iterations =  2.1

     total cpu time spent up to now is      719.3 secs

     total energy              =    -520.57591448 Ry
     estimated scf accuracy    <       0.10518183 Ry

     iteration #  5     ecut=    60.00 Ry     beta= 0.70
     Davidson diagonalization with overlap
     ethr =  2.45E-04,  avg # of iterations =  4.1

     total cpu time spent up to now is      722.0 secs

     total energy              =    -520.60907552 Ry
     estimated scf accuracy    <       0.03506302 Ry

     iteration #  6     ecut=    60.00 Ry     beta= 0.70
     Davidson diagonalization with overlap
     ethr =  8.15E-05,  avg # of iterations =  2.1

     total cpu time spent up to now is      724.3 secs

     total energy              =    -520.61730206 Ry
     estimated scf accuracy    <       0.01794618 Ry

     iteration #  7     ecut=    60.00 Ry     beta= 0.70
     Davidson diagonalization with overlap
     ethr =  4.17E-05,  avg # of iterations =  2.0

     total cpu time spent up to now is      726.5 secs

     total energy              =    -520.61802216 Ry
     estimated scf accuracy    <       0.00588149 Ry

     iteration #  8     ecut=    60.00 Ry     beta= 0.70
     Davidson diagonalization with overlap
     ethr =  1.37E-05,  avg # of iterations =  2.3

     total cpu time spent up to now is      729.0 secs

     total energy              =    -520.61956235 Ry
     estimated scf accuracy    <       0.00180419 Ry

     iteration #  9     ecut=    60.00 Ry     beta= 0.70
     Davidson diagonalization with overlap
     ethr =  4.20E-06,  avg # of iterations =  6.9

     total cpu time spent up to now is      732.0 secs

     total energy              =    -520.62016335 Ry
     estimated scf accuracy    <       0.00040969 Ry

     iteration # 10     ecut=    60.00 Ry     beta= 0.70
     Davidson diagonalization with overlap
     ethr =  9.53E-07,  avg # of iterations =  5.6

     total cpu time spent up to now is      734.8 secs

     total energy              =    -520.62024881 Ry
     estimated scf accuracy    <       0.00010860 Ry

     iteration # 11     ecut=    60.00 Ry     beta= 0.70
     Davidson diagonalization with overlap
     ethr =  2.53E-07,  avg # of iterations =  8.8

     total cpu time spent up to now is      738.1 secs

     total energy              =    -520.62033443 Ry
     estimated scf accuracy    <       0.00001868 Ry

     iteration # 12     ecut=    60.00 Ry     beta= 0.70
     Davidson diagonalization with overlap
     c_bands:  1 eigenvalues not converged
     c_bands:  1 eigenvalues not converged
     c_bands:  1 eigenvalues not converged
     c_bands:  1 eigenvalues not converged
     c_bands:  2 eigenvalues not converged
     ethr =  4.34E-08,  avg # of iterations = 11.9

     total cpu time spent up to now is      742.1 secs

     total energy              =    -520.62035269 Ry
     estimated scf accuracy    <       0.00002008 Ry

     iteration # 13     ecut=    60.00 Ry     beta= 0.70
     Davidson diagonalization with overlap
     ethr =  4.34E-08,  avg # of iterations =  2.4

     total cpu time spent up to now is      744.4 secs

     total energy              =    -520.62035683 Ry
     estimated scf accuracy    <       0.00000052 Ry

     iteration # 14     ecut=    60.00 Ry     beta= 0.70
     Davidson diagonalization with overlap
     c_bands:  5 eigenvalues not converged
     c_bands:  3 eigenvalues not converged
     c_bands:  5 eigenvalues not converged
     c_bands:  3 eigenvalues not converged
     c_bands:  2 eigenvalues not converged
     c_bands:  3 eigenvalues not converged
     c_bands:  5 eigenvalues not converged
     c_bands:  3 eigenvalues not converged
     c_bands:  4 eigenvalues not converged
     ethr =  1.21E-09,  avg # of iterations = 22.4

     total cpu time spent up to now is      752.0 secs

     total energy              =    -520.62036150 Ry
     estimated scf accuracy    <       0.00000199 Ry

     iteration # 15     ecut=    60.00 Ry     beta= 0.70
     Davidson diagonalization with overlap
     ethr =  1.21E-09,  avg # of iterations =  3.8

     total cpu time spent up to now is      754.4 secs

     total energy              =    -520.62036135 Ry
     estimated scf accuracy    <       0.00000127 Ry

     iteration # 16     ecut=    60.00 Ry     beta= 0.70
     Davidson diagonalization with overlap
     ethr =  1.21E-09,  avg # of iterations =  2.3

     total cpu time spent up to now is      756.8 secs

     total energy              =    -520.62036128 Ry
     estimated scf accuracy    <       0.00000048 Ry

     iteration # 17     ecut=    60.00 Ry     beta= 0.70
     Davidson diagonalization with overlap
     ethr =  1.11E-09,  avg # of iterations =  4.5

     total cpu time spent up to now is      759.6 secs

     total energy              =    -520.62036156 Ry
     estimated scf accuracy    <       0.00000012 Ry

     iteration # 18     ecut=    60.00 Ry     beta= 0.70
     Davidson diagonalization with overlap
     ethr =  2.76E-10,  avg # of iterations =  7.7

     total cpu time spent up to now is      762.9 secs

     total energy              =    -520.62036146 Ry
     estimated scf accuracy    <       0.00000036 Ry

     iteration # 19     ecut=    60.00 Ry     beta= 0.70
     Davidson diagonalization with overlap
     ethr =  2.76E-10,  avg # of iterations =  6.5

     total cpu time spent up to now is      766.4 secs

     total energy              =    -520.62036157 Ry
     estimated scf accuracy    <       0.00000018 Ry

     iteration # 20     ecut=    60.00 Ry     beta= 0.70
     Davidson diagonalization with overlap
     ethr =  2.76E-10,  avg # of iterations =  2.0

     total cpu time spent up to now is      768.6 secs

     total energy              =    -520.62036187 Ry
     estimated scf accuracy    <       0.00000019 Ry

     iteration # 21     ecut=    60.00 Ry     beta= 0.70
     Davidson diagonalization with overlap
     ethr =  2.76E-10,  avg # of iterations =  1.8

     total cpu time spent up to now is      770.8 secs

     total energy              =    -520.62036190 Ry
     estimated scf accuracy    <       0.00000006 Ry

     iteration # 22     ecut=    60.00 Ry     beta= 0.70
     Davidson diagonalization with overlap
     ethr =  1.41E-10,  avg # of iterations =  3.6

     total cpu time spent up to now is      773.3 secs

     End of self-consistent calculation

     =================== HUBBARD OCCUPATIONS ===================
     ------------------------ ATOM    3 ------------------------
     Tr[ns(  3)] =   5.23666
     eigenvalues:
       0.219  0.312  0.399  0.713  0.976
     eigenvectors (columns):
      -0.535 -0.002  0.209 -0.000 -0.819
       0.000  0.965 -0.001  0.263 -0.004
       0.806 -0.002  0.417  0.000 -0.420
      -0.254  0.003  0.885 -0.003  0.391
       0.001  0.263 -0.003 -0.965 -0.002
     occupation matrix ns (before diag.):
       0.734  0.002  0.276 -0.209  0.001
       0.002  0.339  0.001 -0.001 -0.102
       0.276  0.001  0.384 -0.058  0.000
      -0.209 -0.001 -0.058  0.476  0.000
       0.001 -0.102  0.000  0.000  0.685

     Number of occupied Hubbard levels =    5.2367

          k = 0.0000 0.0000 0.0000 (  3801 PWs)   bands (ev):

   -72.8896 -42.3172 -41.5381 -40.9258 -11.8815 -10.5537 -10.2840 -10.0598
     0.8177   1.4924   2.2390   2.7004   3.0758   3.9164   4.0941   4.3648
     4.6265   5.4138   5.6220   5.6729   6.0587   7.1394   7.9962  10.0759
    10.3370  11.7308

          k =-0.0003 0.0004 0.1876 (  3830 PWs)   bands (ev):

   -72.8896 -42.3173 -41.5382 -40.9258 -11.6849 -10.7085 -10.3546 -10.0981
     1.0147   1.7986   1.9764   3.0778   3.0818   3.8787   4.0198   4.4756
     4.5946   4.9617   5.5666   5.5967   5.7595   7.0973   8.0988   9.7852
    10.3786  12.8479

          k = 0.0006-0.0009-0.3753 (  3818 PWs)   bands (ev):

   -72.8895 -42.3173 -41.5382 -40.9258 -11.3547 -10.9823 -10.4262 -10.1517
     1.2725   1.8277   2.5158   3.0134   3.0740   3.4797   3.8730   4.5483
     4.5656   4.8290   5.4773   5.5161   5.6265   7.0543   8.1817   9.5429
    10.4214  14.4672

          k = 0.0003 0.1192-0.0965 (  3822 PWs)   bands (ev):

   -72.8896 -42.3172 -41.5382 -40.9258 -11.7766 -10.5809 -10.4198 -10.0431
     1.0395   1.5131   2.1945   2.7953   3.1108   3.9375   4.1115   4.3116
     4.6869   5.0208   5.4812   5.6251   6.0624   7.1636   7.9900  10.1413
    10.3767  12.5202

          k = 0.0001 0.1197 0.0911 (  3814 PWs)   bands (ev):

   -72.8896 -42.3173 -41.5381 -40.9258 -11.7295 -10.7903 -10.2469 -10.0532
     0.9521   1.7943   2.1056   2.8930   3.0435   3.8030   3.9168   4.4808
     4.6130   5.2147   5.5785   5.5808   5.8374   7.1341   8.0953   9.7913
    10.3380  12.4956

          k = 0.0009 0.1183-0.4718 (  3826 PWs)   bands (ev):

   -72.8895 -42.3173 -41.5382 -40.9258 -11.4050 -11.0626 -10.3255 -10.0945
     1.3101   1.6547   2.4287   3.0424   3.1499   3.5070   3.8998   4.3293
     4.5839   5.0766   5.4359   5.4936   5.6732   7.0906   8.1988   9.5536
    10.3805  13.8574

          k = 0.0006 0.1188-0.2842 (  3817 PWs)   bands (ev):

   -72.8895 -42.3173 -41.5382 -40.9258 -11.5325 -10.7876 -10.4844 -10.0835
     1.2369   1.7895   2.2189   2.9690   3.1106   3.8304   3.8966   4.4302
     4.5010   4.8970   5.4429   5.5444   5.7664   7.1243   8.1196   9.8643
    10.4184  14.0947

          k =-0.0007-0.2385 0.1930 (  3818 PWs)   bands (ev):

   -72.8895 -42.3172 -41.5382 -40.9258 -11.6428 -10.6790 -10.5092 -10.0297
     1.0171   1.8608   2.3990   2.8195   3.1484   3.6037   3.9623   4.2534
     4.5749   4.9929   5.4722   5.5766   6.0635   7.1880   7.9818  10.2112
    10.4161  13.8351

          k =-0.0010-0.2380 0.3807 (  3815 PWs)   bands (ev):

   -72.8895 -42.3173 -41.5382 -40.9258 -11.5910 -10.8599 -10.3704 -10.0411
     1.3389   1.7474   2.0053   2.9056   3.0743   3.8034   3.9388   4.4342
     4.7317   4.8769   5.4293   5.5269   5.8033   7.1595   8.1261   9.8755
    10.3779  13.4192

          k =-0.0001-0.2394-0.1823 (  3830 PWs)   bands (ev):

   -72.8896 -42.3173 -41.5381 -40.9258 -11.4475 -11.1321 -10.2302 -10.0506
     1.1572   1.8290   2.3142   3.0125   3.0263   3.7062   3.9284   4.0937
     4.5949   5.1756   5.4771   5.5510   5.7302   7.1251   8.1649   9.5439
    10.3394  13.7590

          k = 0.2498-0.0605-0.1390 (  3822 PWs)   bands (ev):

   -72.8867 -42.3142 -41.5326 -40.9649 -11.3239 -10.5808 -10.2143 -10.0418
     1.4052   1.6753   2.1271   2.4320   2.7797   3.0133   3.8359   4.0076
     4.2796   5.0095   5.2981   5.5093   6.1179   6.9799   8.0194   9.6899
    10.1031  13.9418

          k = 0.2495-0.0600 0.0486 (  3822 PWs)   bands (ev):

   -72.8867 -42.3142 -41.5326 -40.9649 -11.4229 -10.4539 -10.2597 -10.0082
     1.4219   1.8127   2.0450   2.4454   2.8256   2.8669   3.7101   3.9876
     4.2869   5.0269   5.3842   5.5590   6.0435   7.0699   7.9468   9.7576
    10.0782  13.5885

          k = 0.2504-0.0614-0.5143 (  3826 PWs)   bands (ev):

   -72.8867 -42.3142 -41.5326 -40.9649 -11.2281 -10.5499 -10.3462 -10.0613
     1.3243   1.6833   2.2009   2.5535   2.6740   3.0078   3.9976   4.1220
     4.3868   4.9230   5.0541   5.4746   6.1606   6.9688   8.0153   9.6463
    10.0336  14.7121

          k = 0.2501-0.0609-0.3267 (  3843 PWs)   bands (ev):

   -72.8867 -42.3143 -41.5326 -40.9649 -11.0428 -10.7620 -10.2971 -10.1006
     1.3364   1.6521   2.0958   2.4463   2.7317   3.3563   3.9183   4.2008
     4.3833   4.8540   4.9994   5.4601   6.1830   6.8922   8.0829   9.8102
     9.8573  15.1051

          k = 0.2502 0.0588-0.2355 (  3826 PWs)   bands (ev):

   -72.8867 -42.3142 -41.5326 -40.9649 -11.2281 -10.5499 -10.3462 -10.0613
     1.3245   1.6833   2.2010   2.5530   2.6741   3.0078   3.9974   4.1220
     4.3867   4.9232   5.0542   5.4746   6.1606   6.9691   8.0149   9.6466
    10.0335  14.7118

          k = 0.2499 0.0592-0.0479 (  3822 PWs)   bands (ev):

   -72.8867 -42.3142 -41.5326 -40.9649 -11.4229 -10.4539 -10.2598 -10.0082
     1.4219   1.8127   2.0448   2.4455   2.8254   2.8673   3.7101   3.9877
     4.2867   5.0269   5.3843   5.5590   6.0434   7.0700   7.9468   9.7577
    10.0782  13.5885

          k = 0.2507 0.0579-0.6108 (  3822 PWs)   bands (ev):

   -72.8867 -42.3142 -41.5326 -40.9649 -11.3239 -10.5808 -10.2143 -10.0418
     1.4051   1.6753   2.1271   2.4318   2.7800   3.0133   3.8360   4.0079
     4.2795   5.0093   5.2978   5.5094   6.1180   6.9797   8.0196   9.6897
    10.1030  13.9419

          k = 0.2504 0.0583-0.4232 (  3843 PWs)   bands (ev):

   -72.8867 -42.3143 -41.5326 -40.9649 -11.0428 -10.7620 -10.2971 -10.1006
     1.3365   1.6521   2.0959   2.4463   2.7315   3.3562   3.9185   4.2009
     4.3832   4.8541   4.9992   5.4602   6.1831   6.8923   8.0829   9.8103
     9.8572  15.1051

          k = 0.2491-0.2989 0.0540 (  3838 PWs)   bands (ev):

   -72.8867 -42.3142 -41.5326 -40.9649 -11.1581 -10.6487 -10.3433 -10.0464
     1.4703   1.8449   2.1101   2.4654   2.6732   3.1209   3.7059   4.0365
     4.3740   4.8955   5.1099   5.5287   6.1533   6.9797   8.0303   9.6623
    10.1179  14.7126

          k = 0.2489-0.2985 0.2417 (  3833 PWs)   bands (ev):

   -72.8867 -42.3142 -41.5326 -40.9649 -11.2896 -10.4743 -10.4040 -10.0114
     1.3836   1.9720   2.2628   2.5109   2.6656   2.8886   3.5494   3.9482
     4.4758   4.9092   5.1576   5.5870   6.1131   7.0843   7.9348   9.7064
    10.0830  14.4987

          k = 0.2497-0.2998-0.3213 (  3835 PWs)   bands (ev):

   -72.8867 -42.3142 -41.5326 -40.9649 -11.2722 -10.6437 -10.2256 -10.0304
     1.6122   1.7829   1.9365   2.5647   2.7880   3.0475   3.5676   3.8873
     4.1482   5.0686   5.3480   5.5687   6.1078   6.9841   8.0309   9.7190
    10.1870  13.8677

          k = 0.2494-0.2994-0.1336 (  3816 PWs)   bands (ev):

   -72.8867 -42.3143 -41.5326 -40.9649 -11.0641 -10.8665 -10.1963 -10.0609
     1.5729   1.7186   1.9745   2.5663   2.7525   3.1031   3.5075   4.1678
     4.2891   4.8402   5.3148   5.5380   6.1547   6.8930   8.0968   9.9088
     9.9427  14.6205

          k = 0.2495-0.1797-0.0425 (  3835 PWs)   bands (ev):

   -72.8867 -42.3142 -41.5326 -40.9649 -11.2722 -10.6436 -10.2256 -10.0305
     1.6124   1.7830   1.9366   2.5647   2.7877   3.0470   3.5676   3.8868
     4.1485   5.0686   5.3481   5.5688   6.1079   6.9843   8.0307   9.7190
    10.1871  13.8677

          k = 0.2492-0.1793 0.1451 (  3832 PWs)   bands (ev):

   -72.8867 -42.3142 -41.5326 -40.9649 -11.2896 -10.4742 -10.4040 -10.0114
     1.3836   1.9720   2.2628   2.5114   2.6651   2.8887   3.5493   3.9483
     4.4760   4.9091   5.1577   5.5870   6.1131   7.0842   7.9348   9.7063
    10.0830  14.4987

          k = 0.2500-0.1806-0.4178 (  3838 PWs)   bands (ev):

   -72.8867 -42.3142 -41.5326 -40.9649 -11.1581 -10.6487 -10.3433 -10.0464
     1.4699   1.8449   2.1100   2.4655   2.6735   3.1211   3.7059   4.0367
     4.3738   4.8956   5.1099   5.5286   6.1532   6.9794   8.0306   9.6621
    10.1179  14.7129

          k = 0.2498-0.1802-0.2302 (  3816 PWs)   bands (ev):

   -72.8867 -42.3143 -41.5326 -40.9649 -11.0642 -10.8665 -10.1963 -10.0608
     1.5729   1.7186   1.9745   2.5662   2.7528   3.1031   3.5075   4.1680
     4.2889   4.8402   5.3150   5.5379   6.1546   6.8929   8.0968   9.9088
     9.9427  14.6208

          k =-0.4996 0.1210 0.2780 (  3854 PWs)   bands (ev):

   -72.8843 -42.3112 -41.5270 -41.0037 -10.6361 -10.4371 -10.2829 -10.1015
     0.7110   1.2104   1.8408   2.2710   2.5845   3.4971   3.9000   4.2673
     4.5363   4.7622   4.8059   5.3293   5.9782   6.7961   7.9274   9.9969
    10.1062  15.2992

          k =-0.4999 0.1214 0.4657 (  3836 PWs)   bands (ev):

   -72.8843 -42.3112 -41.5270 -41.0037 -10.6817 -10.4543 -10.2678 -10.0599
     0.9145   1.2296   1.9707   2.3746   2.5957   3.4237   3.6773   4.2287
     4.4026   4.5171   4.9132   5.1625   5.9749   6.9644   7.9117   9.8125
    10.0647  15.8433

          k =-0.4991 0.1201-0.0972 (  3826 PWs)   bands (ev):

   -72.8843 -42.3112 -41.5270 -41.0037 -10.7197 -10.4746 -10.2509 -10.0245
     1.0782   1.3423   2.2140   2.4453   2.6494   3.1025   3.3973   4.1553
     4.3497   4.4906   4.8960   5.0342   5.9658   7.0934   7.8995   9.5975
    10.0799  16.0926

          k =-0.4993 0.2402 0.1815 (  3843 PWs)   bands (ev):

   -72.8843 -42.3112 -41.5270 -41.0037 -10.6359 -10.4378 -10.2820 -10.1019
     0.7757   1.1128   1.8484   2.2709   2.5737   3.6497   3.8612   4.2015
     4.5283   4.7503   4.8169   5.3249   5.9769   6.7994   7.9222  10.0120
    10.0814  15.6095

          k =-0.4996 0.2406 0.3692 (  3834 PWs)   bands (ev):

   -72.8843 -42.3112 -41.5270 -41.0037 -10.6810 -10.4568 -10.2654 -10.0606
     0.8988   1.2667   1.9637   2.2334   2.7977   3.3414   3.6752   4.2142
     4.4070   4.5178   4.9240   5.1710   5.9733   6.9691   7.9112   9.8015
    10.0783  15.6315

          k =-0.4987 0.2393-0.1938 (  3823 PWs)   bands (ev):

   -72.8843 -42.3112 -41.5270 -41.0037 -10.7216 -10.4686 -10.2566 -10.0228
     1.0920   1.3111   2.1809   2.5346   2.6892   3.0007   3.4676   4.1318
     4.2832   4.4839   4.8769   5.0955   5.9702   7.0978   7.8997   9.6079
    10.0717  16.0492

          k =-0.4990 0.2397-0.0061 (  3834 PWs)   bands (ev):

   -72.8843 -42.3112 -41.5270 -41.0037 -10.6810 -10.4568 -10.2653 -10.0606
     0.8990   1.2664   1.9637   2.2332   2.7981   3.3413   3.6753   4.2137
     4.4072   4.5180   4.9237   5.1710   5.9733   6.9692   7.9112   9.8013
    10.0782  15.6314

          k =-0.5003-0.1175 0.4711 (  3854 PWs)   bands (ev):

   -72.8843 -42.3112 -41.5270 -41.0037 -10.6361 -10.4371 -10.2828 -10.1016
     0.7112   1.2100   1.8407   2.2714   2.5846   3.4974   3.8997   4.2668
     4.5364   4.7621   4.8058   5.3293   5.9782   6.7963   7.9274   9.9967
    10.1062  15.2989

          k =-0.5006-0.1171 0.6587 (  3836 PWs)   bands (ev):

   -72.8843 -42.3112 -41.5270 -41.0037 -10.6817 -10.4542 -10.2678 -10.0599
     0.9146   1.2295   1.9707   2.3747   2.5957   3.4238   3.6775   4.2282
     4.4026   4.5172   4.9132   5.1625   5.9749   6.9646   7.9116   9.8125
    10.0647  15.8425

          k =-0.4998-0.1184 0.0958 (  3826 PWs)   bands (ev):

   -72.8843 -42.3112 -41.5270 -41.0037 -10.7197 -10.4745 -10.2510 -10.0245
     1.0781   1.3424   2.2140   2.4455   2.6493   3.1028   3.3970   4.1553
     4.3493   4.4909   4.8958   5.0344   5.9658   7.0935   7.8995   9.5978
    10.0800  16.0920

     the Fermi energy is     7.0454 ev

!    total energy              =    -520.62036192 Ry
     total all-electron energy =     -3720.873620 Ry
     estimated scf accuracy    <          6.5E-09 Ry
     smearing contrib. (-TS)   =      -0.00491421 Ry
     internal energy E=F+TS    =    -520.61544771 Ry

     The total energy is F=E-TS. E is the sum of the following terms:
     one-electron contribution =    -240.57674724 Ry
     hartree contribution      =     145.36003735 Ry
     xc contribution           =     -61.24946650 Ry
     ewald contribution        =    -185.65284556 Ry
     Hubbard energy            =       0.24477635 Ry
     one-center paw contrib.   =    -178.74120211 Ry

     convergence has been achieved in  22 iterations
     force_hub    :    256.48s CPU     35.76s WALL (      17 calls)
     dndtau       :    226.25s CPU     31.57s WALL (   12852 calls)
     dprojdtau    :     32.25s CPU      4.92s WALL (   12852 calls)
     calc_doverla :    123.19s CPU     16.91s WALL (   12852 calls)
     matel_dSdtau :    164.72s CPU     22.68s WALL (   25704 calls)

     Forces acting on atoms (cartesian axes, Ry/au):

     atom    1 type  1   force =    -0.00005449   -0.00009082   -0.00003388
     atom    2 type  1   force =     0.00001241   -0.00016048    0.00006920
     atom    3 type  3   force =    -0.00000432    0.00000568    0.00016640
     atom    4 type  2   force =    -0.00000808   -0.00004694   -0.00000934
     atom    5 type  2   force =    -0.00000156    0.00011453   -0.00011006
     atom    6 type  2   force =    -0.00003401    0.00013293   -0.00003763
     atom    7 type  2   force =     0.00009005    0.00004509   -0.00004470

     Total force =     0.000362     Total SCF correction =     0.000154
     SCF correction compared to forces is large: reduce conv_thr to get better values


     Computing stress (Cartesian axis) and pressure

     stres_hub    :    706.25s CPU     90.99s WALL (      17 calls)
     dprojdepsilo :    579.08s CPU     74.17s WALL (    5508 calls)
     dprojdeps1   :     60.48s CPU      8.26s WALL (    5508 calls)
     dprojdeps2   :    331.94s CPU     41.43s WALL (    5508 calls)
     dprojdeps3   :    186.52s CPU     24.45s WALL (    5508 calls)
          total   stress  (Ry/bohr**3)                   (kbar)     P=       -0.29
  -0.00000190  -0.00000001   0.00000010           -0.28       -0.00        0.01
  -0.00000001  -0.00000155  -0.00000008           -0.00       -0.23       -0.01
   0.00000010  -0.00000008  -0.00000252            0.01       -0.01       -0.37


     Writing all to output data dir .\out\\qgan.save\ :
     XML data file, charge density, pseudopotentials, collected wavefunctions
 
     init_run     :     20.94s CPU      3.59s WALL (       2 calls)
     electrons    :   5078.28s CPU    603.41s WALL (      17 calls)
     update_pot   :     16.58s CPU      2.48s WALL (      15 calls)
     forces       :    296.44s CPU     42.28s WALL (      17 calls)
     stress       :    930.48s CPU    121.85s WALL (      17 calls)

     Called by init_run:
     wfcinit      :     14.53s CPU      1.97s WALL (       2 calls)
     potinit      :      2.34s CPU      0.41s WALL (       2 calls)
     hinit0       :      1.61s CPU      0.78s WALL (       2 calls)

     Called by electrons:
     c_bands      :   3738.66s CPU    432.46s WALL (     206 calls)
     sum_band     :    832.78s CPU    102.63s WALL (     206 calls)
     v_of_rho     :     36.30s CPU      4.83s WALL (     214 calls)
     newd         :    285.94s CPU     39.58s WALL (     214 calls)
     PAW_pot      :    223.23s CPU     30.00s WALL (     229 calls)
     mix_rho      :      5.39s CPU      0.87s WALL (     206 calls)

     Called by c_bands:
     init_us_2    :    320.81s CPU     39.08s WALL (   18504 calls)
     cegterg      :   3211.75s CPU    369.76s WALL (    7487 calls)

     Called by *egterg:
     cdiaghg      :    146.69s CPU     15.97s WALL (   41944 calls)
     h_psi        :   2400.36s CPU    276.97s WALL (   42914 calls)
     s_psi        :     88.47s CPU     11.17s WALL (   45974 calls)
     g_psi        :     18.66s CPU      2.19s WALL (   35355 calls)

     Called by h_psi:
     h_psi:calbec :     88.92s CPU      9.69s WALL (   42914 calls)
     vloc_psi     :   2130.89s CPU    247.41s WALL (   42914 calls)
                                        0.00s GPU  (   42914 calls)
     add_vuspsi   :     91.38s CPU     10.25s WALL (   42914 calls)
     vhpsi        :     48.73s CPU      5.24s WALL (   42914 calls)

     General routines
     calbec       :    697.73s CPU     88.86s WALL (  532660 calls)
     fft          :     12.88s CPU      1.61s WALL (    3197 calls)
     ffts         :      1.05s CPU      0.10s WALL (     420 calls)
     fftw         :   1648.20s CPU    205.95s WALL ( 1515362 calls)
     interpolate  :      3.81s CPU      0.42s WALL (     214 calls)
 
     Parallel routines

     Hubbard U routines
     new_ns       :     15.52s CPU      1.75s WALL (     206 calls)
     vhpsi        :     48.73s CPU      5.24s WALL (   42914 calls)
     force_hub    :    256.48s CPU     35.76s WALL (      17 calls)
     stres_hub    :    706.25s CPU     90.99s WALL (      17 calls)
 
     PWSCF        :      1h46m CPU  13m 2.93s WALL

 
   This run was terminated on:  13:38: 5  18Apr2026            

=------------------------------------------------------------------------------=
   JOB DONE.
=------------------------------------------------------------------------------=
