Mg1 Mn6 O8
1.0
   6.3881370162084661   -0.0127197288318878   -0.6204538202853789
  -0.6852425248790409    7.8112760382658628   -2.4582513163222615
   0.1815576630967086    0.2206773263862707    7.3538960420392856
Mg Mn O
1 6 8
direct
   0.2867972734695324   -0.0467568772748547    0.1808933737761168 Mg
   0.5855358030548293    0.3303070595710408    0.5840381237089015 Mn
   0.4382101803596494    0.8040816678155290    0.7986956380480343 Mn
   0.0337095359787489    0.6240085888165587    0.0824773773314529 Mn
   0.1852754794850254    0.4702426980020900    0.7062130010943241 Mn
   0.4227131097034054    0.6336987806682277    0.3599844635494762 Mn
   0.5449246018558271    0.2413483583073704    0.1354350447376239 Mn
   0.3707392197540056    0.1921091178149927    0.3531974185971618 O
   0.2169219792807884    0.4136846890445928   -0.0205071410009453 O
   0.2088942939605871    0.7888988479601057    0.3072918115608724 O
   0.1551627223888032    0.7253648446122080    0.8813173734420835 O
   0.5064194332726631    0.9929805052259058    1.0280024433148705 O
   0.2742897377136716    0.2331906204434331    0.5365230384153569 O
   0.4856190263201315    0.5730979881086582    0.6156725064991170 O
   0.4212550761917492    0.4525235415399009    0.0892792601450523 O
