Mg1 Mn6 O8
1.0
   6.2573577794021791    0.0726826553679678   -1.1835617797078508
  -0.7661445557476667    6.5044884829350398   -3.1761442724684170
   0.1499949733895547   -0.1472221846146750    8.4140509490962003
Mg Mn O
1 6 8
direct
   0.1171537196477952   -0.1349460085491014   -0.0137421469967554 Mg
   0.2209601627558032    0.0183722657289222    0.3751201997898043 Mn
   0.7829768446650773    0.5148961317804608    0.5890036040962406 Mn
   0.5386421071311608    0.0829948604678758    0.7341132740673758 Mn
  -0.0014270388548467    0.4167727432606306   -0.1032495264101314 Mn
   0.3623995270064316    0.4565189022181924    0.7153117249216697 Mn
   0.2959495527269972    0.4280700531723898    0.2730733648204051 Mn
   0.1262881064898834    0.7259251281737128    0.1454855262877630 O
   0.0373669650938184    0.5560849157036561    0.1790405126284252 O
   0.2314975309519355    0.1207669197844042    0.1807080510507736 O
   0.6826069912622363    0.3586963807994361    0.7448365486690725 O
   0.6128352726372174    0.7786645279493858    0.6366190492022792 O
   0.0803164492224470    0.6152659861838156    0.7662026699409892 O
   0.2319155267674812    0.1534621619441702    0.6554668928655969 O
   0.4545587509334186    0.5903220747730484    0.5502064841599156 O
