Mg1 Mn1 O3
1.0
   3.5454977361691737    0.4658939333331734    1.2772569121227264
  -0.2800814930102047    3.9305103671760802    4.0709734065255390
  -0.1813779830768188    0.8190810620907768    5.0140244906983620
Mg Mn O
1 1 3
direct
   0.4067606768270605    0.4230417176299923    0.9691715053837748 Mg
   0.0753282465488070    0.8660724717687233    0.1429611085257360 Mn
   0.5454275420787208    0.8439807711997257    0.2312199876863274 O
   0.9711639896486050    0.3937310347743864    0.8470508853713172 O
   0.2471856741731131   -0.0224487097221383    0.6789265024359667 O
