Mg1 Mn2 O3
1.0
   6.1127403023525515    0.2941337254561308   -1.2755340826891628
  -0.9332194767542078    5.6738610212769647    0.9577225463780257
  -0.3698399519307240   -0.5956649449857183    3.4519702028399610
Mg Mn O
1 2 3
direct
  -0.4912608858994740    0.0104899025774215   -0.0319452728707548 Mg
   0.9577772224235481    0.4376394971828974    0.1994875030021361 Mn
   0.5947357856078671    0.5491421793208634    0.5014671725485922 Mn
   0.9723577163085736    0.5667089595077651    0.7049198034411513 O
   0.6004476944062322    0.3469937772939178    0.9996019376341388 O
   0.5122902343075111    0.8723567485902296    0.4725637616945231 O
