
     Program PWSCF v.7.5 starts on 21Apr2026 at 16:20:31 
        Git branch: HEAD
        Last git commit: 770a0b2d12928a67048e2f3da8d10d057e52179e-dirty
        Last git commit date: Tue Aug 19 09:57:12 2025 +0000
        Last git commit subject: Merge branch 'QE-7.5-RC' into 'master'

     This program is part of the open-source Quantum ESPRESSO suite
     for quantum simulation of materials; please cite
         "P. Giannozzi et al., J. Phys.:Condens. Matter 21 395502 (2009);
         "P. Giannozzi et al., J. Phys.:Condens. Matter 29 465901 (2017);
         "P. Giannozzi et al., J. Chem. Phys. 152 154105 (2020);
          URL http://www.quantum-espresso.org", 
     in publications or presentations arising from this work. More details at
     http://www.quantum-espresso.org/quote

     Parallel version (MPI & OpenMP), running on      16 processor cores
     Number of MPI processes:                 1
     Threads/MPI process:                    16

     MPI processes distributed on     1 nodes
     0 MiB available memory on the printing compute node when the environment starts
 
     Reading input from pw_relax.in

     Current dimensions of program PWSCF are:
     Max number of different atomic species (ntypx) = 10
     Max number of k-points (npk) =  40000
     Max angular momentum in pseudopotentials (lmaxx) =  4

     File .\out\\qgan.update deleted, as requested
     file Mg.pbe-n-kjpaw_psl.0.3.0.UPF: wavefunction(s)  3S renormalized
     file O.pbe-n-kjpaw_psl.1.0.0.UPF: wavefunction(s)  2S 2P renormalized
     file Mn.pbe-spn-kjpaw_psl.0.3.1.UPF: wavefunction(s)  3P 3D renormalized
 
     Subspace diagonalization in iterative solution of the eigenvalue problem:
     a serial algorithm will be used

 
     G-vector sticks info
     --------------------
     sticks:   dense  smooth     PW     G-vecs:    dense   smooth      PW
     Sum        2523    1255    391                88577    31309    5521
 
     Using Slab Decomposition
 


     bravais-lattice index     =            0
     lattice parameter (alat)  =       5.5901  a.u.
     unit-cell volume          =     498.5480 (a.u.)^3
     number of atoms/cell      =            7
     number of atomic types    =            3
     number of electrons       =        43.00
     number of Kohn-Sham states=           26
     kinetic-energy cutoff     =      60.0000  Ry
     charge density cutoff     =     480.0000  Ry
     scf convergence threshold =      1.0E-06
     mixing beta               =       0.7000
     number of iterations used =            8  plain     mixing
     energy convergence thresh.=      1.0E-04
     force convergence thresh. =      1.0E-03
     press convergence thresh. =      5.0E-01
     Exchange-correlation= SLA  PW   PBX  PBC
                           (   1   4   3   4   0   0   0)
     nstep                     =           50

     Hubbard projectors: ortho-atomic
     Hubbard parameters of DFT+U (Dudarev formulation) in eV:
     U(Mn-3d) =  3.9000

     Internal variables: lda_plus_u = T, lda_plus_u_kind = 0

     Internal variables: orbital_resolved = F, hub_pot_fix = F, apply_U =  F

     celldm(1)=   5.590118  celldm(2)=   0.000000  celldm(3)=   0.000000
     celldm(4)=   0.000000  celldm(5)=   0.000000  celldm(6)=   0.000000

     crystal axes: (cart. coord. in units of alat)
               a(1) = (   1.000000   0.000000   0.000000 )  
               a(2) = (   0.507394   2.110386   0.000000 )  
               a(3) = (   0.999962   1.088665   1.352328 )  

     reciprocal axes: (cart. coord. in units 2 pi/alat)
               b(1) = (  1.000000 -0.240427 -0.545886 )  
               b(2) = (  0.000000  0.473847 -0.381461 )  
               b(3) = (  0.000000  0.000000  0.739466 )  


     PseudoPot. # 1 for Mg read from file:
     ..\..\pseudo\\Mg.pbe-n-kjpaw_psl.0.3.0.UPF
     MD5 check sum: d3e4124f57d03672d8f0e29aa18e2cc4
     Pseudo is Projector augmented-wave + core cor, Zval =  2.0
     Generated using &quot;atomic&quot; code by A. Dal Corso  v.6.3
     Shape of augmentation charge: PSQ
     Using radial grid of 1129 points,  4 beta functions with: 
                l(1) =   0
                l(2) =   0
                l(3) =   1
                l(4) =   1
     Q(r) pseudized with 0 coefficients 


     PseudoPot. # 2 for O  read from file:
     ..\..\pseudo\\O.pbe-n-kjpaw_psl.1.0.0.UPF
     MD5 check sum: e99d9cef9b487d1ca56f5b95ecd0fd7a
     Pseudo is Projector augmented-wave + core cor, Zval =  6.0
     Generated using &quot;atomic&quot; code by A. Dal Corso  v.6.3
     Shape of augmentation charge: PSQ
     Using radial grid of 1095 points,  4 beta functions with: 
                l(1) =   0
                l(2) =   0
                l(3) =   1
                l(4) =   1
     Q(r) pseudized with 0 coefficients 


     PseudoPot. # 3 for Mn read from file:
     ..\..\pseudo\\Mn.pbe-spn-kjpaw_psl.0.3.1.UPF
     MD5 check sum: ba19e6d7ccbc12830efad05ba8577d9c
     Pseudo is Projector augmented-wave + core cor, Zval = 15.0
     Generated using &quot;atomic&quot; code by A. Dal Corso  v.6.2.2
     Shape of augmentation charge: PSQ
     Using radial grid of 1187 points,  6 beta functions with: 
                l(1) =   0
                l(2) =   0
                l(3) =   1
                l(4) =   1
                l(5) =   2
                l(6) =   2
     Q(r) pseudized with 0 coefficients 


     atomic species   valence    mass     pseudopotential
     Mg                2.00    24.30500     Mg( 1.00)
     O                 6.00    15.99900     O ( 1.00)
     Mn               15.00    54.93800     Mn( 1.00)

     No symmetry found



   Cartesian axes

     site n.     atom                  positions (alat units)
         1        Mg     tau(   1) = (   1.1590311   1.6570497   0.5217008  )
         2        Mg     tau(   2) = (   1.1611950   0.3665768   0.1353472  )
         3        Mn     tau(   3) = (   1.6620386   0.8136685   0.8654259  )
         4        O      tau(   4) = (   1.1699176   2.3472577   0.6036655  )
         5        O      tau(   5) = (   1.6604470   1.4759021   0.9903616  )
         6        O      tau(   6) = (   1.1617778   0.9590320   0.4682085  )
         7        O      tau(   7) = (   1.6698877   2.8588276   1.3262146  )

     number of k points=    36  Marzari-Vanderbilt smearing, width (Ry)=  0.0200
                       cart. coord. in units 2pi/alat
        k(    1) = (   0.0000000   0.0000000   0.0000000), wk =   0.0312500
        k(    2) = (   0.0000000   0.0000000   0.1848664), wk =   0.0625000
        k(    3) = (   0.0000000   0.0000000  -0.3697328), wk =   0.0312500
        k(    4) = (   0.0000000   0.1184617  -0.0953653), wk =   0.0625000
        k(    5) = (   0.0000000   0.1184617   0.0895011), wk =   0.0625000
        k(    6) = (   0.0000000   0.1184617  -0.4650981), wk =   0.0625000
        k(    7) = (   0.0000000   0.1184617  -0.2802317), wk =   0.0625000
        k(    8) = (   0.0000000  -0.2369234   0.1907306), wk =   0.0312500
        k(    9) = (   0.0000000  -0.2369234   0.3755970), wk =   0.0625000
        k(   10) = (   0.0000000  -0.2369234  -0.1790021), wk =   0.0312500
        k(   11) = (   0.2500000  -0.0601067  -0.1364716), wk =   0.0625000
        k(   12) = (   0.2500000  -0.0601067   0.0483948), wk =   0.0625000
        k(   13) = (   0.2500000  -0.0601067  -0.5062043), wk =   0.0625000
        k(   14) = (   0.2500000  -0.0601067  -0.3213379), wk =   0.0625000
        k(   15) = (   0.2500000   0.0583550  -0.2318369), wk =   0.0625000
        k(   16) = (   0.2500000   0.0583550  -0.0469705), wk =   0.0625000
        k(   17) = (   0.2500000   0.0583550  -0.6015696), wk =   0.0625000
        k(   18) = (   0.2500000   0.0583550  -0.4167033), wk =   0.0625000
        k(   19) = (   0.2500000  -0.2970302   0.0542590), wk =   0.0625000
        k(   20) = (   0.2500000  -0.2970302   0.2391254), wk =   0.0625000
        k(   21) = (   0.2500000  -0.2970302  -0.3154737), wk =   0.0625000
        k(   22) = (   0.2500000  -0.2970302  -0.1306073), wk =   0.0625000
        k(   23) = (   0.2500000  -0.1785684  -0.0411063), wk =   0.0625000
        k(   24) = (   0.2500000  -0.1785684   0.1437601), wk =   0.0625000
        k(   25) = (   0.2500000  -0.1785684  -0.4108390), wk =   0.0625000
        k(   26) = (   0.2500000  -0.1785684  -0.2259726), wk =   0.0625000
        k(   27) = (  -0.5000000   0.1202134   0.2729431), wk =   0.0312500
        k(   28) = (  -0.5000000   0.1202134   0.4578095), wk =   0.0625000
        k(   29) = (  -0.5000000   0.1202134  -0.0967896), wk =   0.0312500
        k(   30) = (  -0.5000000   0.2386752   0.1775778), wk =   0.0625000
        k(   31) = (  -0.5000000   0.2386752   0.3624442), wk =   0.0625000
        k(   32) = (  -0.5000000   0.2386752  -0.1921549), wk =   0.0625000
        k(   33) = (  -0.5000000   0.2386752  -0.0072885), wk =   0.0625000
        k(   34) = (  -0.5000000  -0.1167100   0.4636738), wk =   0.0312500
        k(   35) = (  -0.5000000  -0.1167100   0.6485401), wk =   0.0625000
        k(   36) = (  -0.5000000  -0.1167100   0.0939410), wk =   0.0312500

     Dense  grid:    88577 G-vectors     FFT dimensions: (  40,  90,  80)

     Smooth grid:    31309 G-vectors     FFT dimensions: (  27,  60,  60)

     Estimated max dynamical RAM per process >     416.22 MB

     Check: negative core charge=   -0.000002

     Initial potential from superposition of free atoms

     starting charge      42.9976, renormalised to      43.0000

     STARTING HUBBARD OCCUPATIONS:

     =================== HUBBARD OCCUPATIONS ===================
     ------------------------ ATOM    3 ------------------------
     Tr[ns(  3)] =   5.00000
     eigenvalues:
       0.500  0.500  0.500  0.500  0.500
     eigenvectors (columns):
       1.000  0.000  0.000  0.000  0.000
       0.000  1.000  0.000  0.000  0.000
       0.000  0.000  1.000  0.000  0.000
       0.000  0.000  0.000  1.000  0.000
       0.000  0.000  0.000  0.000  1.000
     occupation matrix ns (before diag.):
       0.500  0.000  0.000  0.000  0.000
       0.000  0.500  0.000  0.000  0.000
       0.000  0.000  0.500  0.000  0.000
       0.000  0.000  0.000  0.500  0.000
       0.000  0.000  0.000  0.000  0.500

     Number of occupied Hubbard levels =    5.0000

     Atomic wfc used for Hubbard projectors are orthogonalized

     Starting wfcs are   34 randomized atomic wfcs
     Checking if some PAW data can be deallocated... 

     total cpu time spent up to now is        2.1 secs

     Self-consistent Calculation

     iteration #  1     ecut=    60.00 Ry     beta= 0.70
     Davidson diagonalization with overlap
     ethr =  1.00E-02,  avg # of iterations =  2.0

     =================== HUBBARD OCCUPATIONS ===================
     ------------------------ ATOM    3 ------------------------
     Tr[ns(  3)] =   4.11606
     eigenvalues:
       0.212  0.224  0.456  0.556  0.611
     eigenvectors (columns):
       0.005  0.238  0.420  0.074 -0.872
      -0.970  0.019  0.001  0.242  0.021
       0.008  0.444 -0.849  0.023 -0.286
       0.019  0.863  0.321 -0.030  0.388
      -0.242  0.007  0.002 -0.967 -0.081
     occupation matrix ns (before diag.):
       0.561 -0.001  0.014 -0.100  0.004
      -0.001  0.232 -0.001  0.001 -0.081
       0.014 -0.001  0.423 -0.106  0.001
      -0.100  0.001 -0.106  0.306 -0.002
       0.004 -0.081  0.001 -0.002  0.536

     Number of occupied Hubbard levels =    4.1161

     total cpu time spent up to now is        4.3 secs

     total energy              =    -518.73352407 Ry
     estimated scf accuracy    <       2.74450858 Ry

     iteration #  2     ecut=    60.00 Ry     beta= 0.70
     Davidson diagonalization with overlap
     ethr =  6.38E-03,  avg # of iterations =  5.6

     total cpu time spent up to now is        7.4 secs

     total energy              =    -517.38674574 Ry
     estimated scf accuracy    <      36.32175700 Ry

     iteration #  3     ecut=    60.00 Ry     beta= 0.70
     Davidson diagonalization with overlap
     ethr =  6.38E-03,  avg # of iterations =  3.3

     total cpu time spent up to now is        9.9 secs

     total energy              =    -520.28815754 Ry
     estimated scf accuracy    <       1.10187174 Ry

     iteration #  4     ecut=    60.00 Ry     beta= 0.70
     Davidson diagonalization with overlap
     ethr =  2.56E-03,  avg # of iterations =  2.1

     total cpu time spent up to now is       12.2 secs

     total energy              =    -520.45134973 Ry
     estimated scf accuracy    <       0.21688247 Ry

     iteration #  5     ecut=    60.00 Ry     beta= 0.70
     Davidson diagonalization with overlap
     ethr =  5.04E-04,  avg # of iterations =  4.7

     total cpu time spent up to now is       15.0 secs

     total energy              =    -520.58843792 Ry
     estimated scf accuracy    <       0.08666403 Ry

     iteration #  6     ecut=    60.00 Ry     beta= 0.70
     Davidson diagonalization with overlap
     ethr =  2.02E-04,  avg # of iterations =  1.4

     total cpu time spent up to now is       17.0 secs

     total energy              =    -520.63306313 Ry
     estimated scf accuracy    <       0.07179422 Ry

     iteration #  7     ecut=    60.00 Ry     beta= 0.70
     Davidson diagonalization with overlap
     ethr =  1.67E-04,  avg # of iterations =  4.2

     total cpu time spent up to now is       19.7 secs

     total energy              =    -520.63998573 Ry
     estimated scf accuracy    <       0.26729319 Ry

     iteration #  8     ecut=    60.00 Ry     beta= 0.70
     Davidson diagonalization with overlap
     ethr =  1.67E-04,  avg # of iterations =  2.0

     total cpu time spent up to now is       21.9 secs

     total energy              =    -520.62130666 Ry
     estimated scf accuracy    <       0.16554062 Ry

     iteration #  9     ecut=    60.00 Ry     beta= 0.70
     Davidson diagonalization with overlap
     ethr =  1.67E-04,  avg # of iterations =  2.0

     total cpu time spent up to now is       24.0 secs

     total energy              =    -520.60034449 Ry
     estimated scf accuracy    <       0.09477063 Ry

     iteration # 10     ecut=    60.00 Ry     beta= 0.70
     Davidson diagonalization with overlap
     ethr =  1.67E-04,  avg # of iterations =  1.9

     total cpu time spent up to now is       26.1 secs

     total energy              =    -520.59821114 Ry
     estimated scf accuracy    <       0.03834096 Ry

     iteration # 11     ecut=    60.00 Ry     beta= 0.70
     Davidson diagonalization with overlap
     ethr =  8.92E-05,  avg # of iterations =  2.6

     total cpu time spent up to now is       28.4 secs

     total energy              =    -520.60566009 Ry
     estimated scf accuracy    <       0.00446675 Ry

     iteration # 12     ecut=    60.00 Ry     beta= 0.70
     Davidson diagonalization with overlap
     ethr =  1.04E-05,  avg # of iterations =  6.8

     total cpu time spent up to now is       31.7 secs

     total energy              =    -520.60989874 Ry
     estimated scf accuracy    <       0.00204286 Ry

     iteration # 13     ecut=    60.00 Ry     beta= 0.70
     Davidson diagonalization with overlap
     ethr =  4.75E-06,  avg # of iterations =  3.3

     total cpu time spent up to now is       33.9 secs

     total energy              =    -520.61013076 Ry
     estimated scf accuracy    <       0.00019562 Ry

     iteration # 14     ecut=    60.00 Ry     beta= 0.70
     Davidson diagonalization with overlap
     c_bands:  4 eigenvalues not converged
     c_bands:  3 eigenvalues not converged
     c_bands:  3 eigenvalues not converged
     c_bands:  1 eigenvalues not converged
     c_bands:  1 eigenvalues not converged
     c_bands:  1 eigenvalues not converged
     c_bands:  1 eigenvalues not converged
     c_bands:  1 eigenvalues not converged
     c_bands:  1 eigenvalues not converged
     c_bands:  3 eigenvalues not converged
     c_bands:  2 eigenvalues not converged
     c_bands:  3 eigenvalues not converged
     c_bands:  1 eigenvalues not converged
     c_bands:  1 eigenvalues not converged
     c_bands:  4 eigenvalues not converged
     c_bands:  1 eigenvalues not converged
     c_bands:  2 eigenvalues not converged
     c_bands:  1 eigenvalues not converged
     c_bands:  2 eigenvalues not converged
     c_bands:  1 eigenvalues not converged
     c_bands:  1 eigenvalues not converged
     ethr =  4.55E-07,  avg # of iterations = 19.4

     total cpu time spent up to now is       39.8 secs

     total energy              =    -520.61064680 Ry
     estimated scf accuracy    <       0.00111936 Ry

     iteration # 15     ecut=    60.00 Ry     beta= 0.70
     Davidson diagonalization with overlap
     c_bands:  1 eigenvalues not converged
     ethr =  4.55E-07,  avg # of iterations =  5.4

     total cpu time spent up to now is       42.7 secs

     total energy              =    -520.61068322 Ry
     estimated scf accuracy    <       0.00020763 Ry

     iteration # 16     ecut=    60.00 Ry     beta= 0.70
     Davidson diagonalization with overlap
     ethr =  4.55E-07,  avg # of iterations =  2.4

     total cpu time spent up to now is       44.9 secs

     total energy              =    -520.61073616 Ry
     estimated scf accuracy    <       0.00001368 Ry

     iteration # 17     ecut=    60.00 Ry     beta= 0.70
     Davidson diagonalization with overlap
     c_bands:  1 eigenvalues not converged
     c_bands:  5 eigenvalues not converged
     c_bands:  1 eigenvalues not converged
     c_bands:  5 eigenvalues not converged
     c_bands:  2 eigenvalues not converged
     c_bands:  2 eigenvalues not converged
     c_bands:  5 eigenvalues not converged
     c_bands:  4 eigenvalues not converged
     c_bands:  4 eigenvalues not converged
     ethr =  3.18E-08,  avg # of iterations = 16.0

     total cpu time spent up to now is       49.9 secs

     total energy              =    -520.61077024 Ry
     estimated scf accuracy    <       0.00005136 Ry

     iteration # 18     ecut=    60.00 Ry     beta= 0.70
     Davidson diagonalization with overlap
     ethr =  3.18E-08,  avg # of iterations =  5.3

     total cpu time spent up to now is       52.6 secs

     total energy              =    -520.61078143 Ry
     estimated scf accuracy    <       0.00000728 Ry

     iteration # 19     ecut=    60.00 Ry     beta= 0.70
     Davidson diagonalization with overlap
     ethr =  1.69E-08,  avg # of iterations =  3.8

     total cpu time spent up to now is       55.1 secs

     total energy              =    -520.61078944 Ry
     estimated scf accuracy    <       0.00000667 Ry

     iteration # 20     ecut=    60.00 Ry     beta= 0.70
     Davidson diagonalization with overlap
     ethr =  1.55E-08,  avg # of iterations =  4.8

     total cpu time spent up to now is       57.8 secs

     total energy              =    -520.61076826 Ry
     estimated scf accuracy    <       0.00001927 Ry

     iteration # 21     ecut=    60.00 Ry     beta= 0.70
     Davidson diagonalization with overlap
     ethr =  1.55E-08,  avg # of iterations =  5.1

     total cpu time spent up to now is       60.8 secs

     total energy              =    -520.61061836 Ry
     estimated scf accuracy    <       0.00000478 Ry

     iteration # 22     ecut=    60.00 Ry     beta= 0.70
     Davidson diagonalization with overlap
     ethr =  1.11E-08,  avg # of iterations =  4.9

     total cpu time spent up to now is       63.6 secs

     total energy              =    -520.61084870 Ry
     estimated scf accuracy    <       0.00001250 Ry

     iteration # 23     ecut=    60.00 Ry     beta= 0.70
     Davidson diagonalization with overlap
     ethr =  1.11E-08,  avg # of iterations =  2.0

     total cpu time spent up to now is       65.9 secs

     total energy              =    -520.61081880 Ry
     estimated scf accuracy    <       0.00000477 Ry

     iteration # 24     ecut=    60.00 Ry     beta= 0.70
     Davidson diagonalization with overlap
     ethr =  1.11E-08,  avg # of iterations =  3.1

     total cpu time spent up to now is       68.4 secs

     total energy              =    -520.61085100 Ry
     estimated scf accuracy    <       0.00000130 Ry

     iteration # 25     ecut=    60.00 Ry     beta= 0.70
     Davidson diagonalization with overlap
     ethr =  3.03E-09,  avg # of iterations =  7.8

     total cpu time spent up to now is       71.6 secs

     End of self-consistent calculation

     =================== HUBBARD OCCUPATIONS ===================
     ------------------------ ATOM    3 ------------------------
     Tr[ns(  3)] =   5.21587
     eigenvalues:
       0.194  0.320  0.400  0.718  0.976
     eigenvectors (columns):
      -0.551 -0.000 -0.203 -0.006  0.810
       0.001 -0.957 -0.007  0.290  0.001
       0.803  0.004 -0.394  0.002  0.447
      -0.228  0.006 -0.896  0.002 -0.380
       0.005 -0.290 -0.003 -0.957 -0.004
     occupation matrix ns (before diag.):
       0.715 -0.000  0.300 -0.203  0.000
      -0.000  0.354  0.001  0.001 -0.110
       0.300  0.001  0.382 -0.060 -0.002
      -0.203  0.001 -0.060  0.472  0.001
       0.000 -0.110 -0.002  0.001  0.685

     Number of occupied Hubbard levels =    5.2159

          k = 0.0000 0.0000 0.0000 (  3893 PWs)   bands (ev):

   -73.2448 -42.6410 -41.8724 -41.2942 -12.0249 -10.6060 -10.5492 -10.4039
     0.6066   1.3733   2.0972   2.4213   2.7873   3.8216   3.9578   4.2973
     4.4670   5.0409   5.3835   5.4350   5.7223   6.5537   7.6700   9.5018
    10.0765  11.3115

          k = 0.0000 0.0000 0.1849 (  3895 PWs)   bands (ev):

   -73.2447 -42.6411 -41.8725 -41.2942 -11.8357 -10.8156 -10.6267 -10.3668
     0.8091   1.6079   1.9090   2.7993   2.8042   3.7771   3.9111   4.3077
     4.4025   4.7031   5.2245   5.3496   5.4884   6.5193   7.7690   9.2417
    10.1238  12.4307

          k = 0.0000 0.0000-0.3697 (  3894 PWs)   bands (ev):

   -73.2446 -42.6411 -41.8725 -41.2942 -11.5174 -11.1149 -10.7058 -10.3691
     1.1538   1.5716   2.3379   2.8165   2.8437   3.3255   3.7582   4.2825
     4.4922   4.5019   5.1413   5.2583   5.4107   6.4839   7.8169   9.0531
    10.1717  14.1108

          k = 0.0000 0.1185-0.0954 (  3889 PWs)   bands (ev):

   -73.2448 -42.6410 -41.8724 -41.2942 -11.9215 -10.7061 -10.6145 -10.3800
     0.8423   1.3594   2.0155   2.5948   2.8223   3.8256   3.9558   4.2633
     4.4259   4.8134   5.1707   5.3775   5.7088   6.5824   7.6891   9.5610
    10.1205  12.1023

          k = 0.0000 0.1185 0.0895 (  3904 PWs)   bands (ev):

   -73.2448 -42.6411 -41.8724 -41.2942 -11.8867 -10.8892 -10.5489 -10.2951
     0.7287   1.7146   1.9389   2.5966   2.7681   3.6610   3.8166   4.4071
     4.4154   4.9378   5.2248   5.3252   5.5926   6.5576   7.7610   9.2458
    10.0790  12.0480

          k = 0.0000 0.1185-0.4651 (  3922 PWs)   bands (ev):

   -73.2447 -42.6412 -41.8725 -41.2942 -11.5956 -11.1517 -10.6329 -10.3012
     1.0897   1.5167   2.3182   2.7815   2.8541   3.3864   3.7897   4.0290
     4.5184   4.7638   5.1652   5.2264   5.4404   6.5212   7.8516   9.0315
    10.1269  13.4051

          k = 0.0000 0.1185-0.2802 (  3906 PWs)   bands (ev):

   -73.2447 -42.6411 -41.8725 -41.2942 -11.6830 -10.9397 -10.7037 -10.3570
     1.0652   1.6211   2.0293   2.7617   2.8382   3.6498   3.7799   4.2587
     4.3738   4.6444   5.1445   5.2866   5.4511   6.5506   7.7947   9.3249
    10.1677  13.6944

          k = 0.0000-0.2369 0.1907 (  3908 PWs)   bands (ev):

   -73.2447 -42.6410 -41.8725 -41.2942 -11.7879 -10.8822 -10.6271 -10.3620
     0.8629   1.6542   2.1577   2.6902   2.8598   3.4098   3.8259   4.2323
     4.3438   4.7932   5.1343   5.3200   5.7170   6.6103   7.6977   9.6281
    10.1639  13.4375

          k = 0.0000-0.2369 0.3756 (  3906 PWs)   bands (ev):

   -73.2447 -42.6411 -41.8724 -41.2942 -11.7533 -10.9653 -10.6482 -10.2922
     1.1187   1.6162   1.8305   2.6905   2.8005   3.6114   3.8228   4.3844
     4.4665   4.6595   5.1597   5.2630   5.4862   6.5865   7.8005   9.3269
    10.1230  12.9539

          k = 0.0000-0.2369-0.1790 (  3902 PWs)   bands (ev):

   -73.2448 -42.6411 -41.8724 -41.2942 -11.6570 -11.1998 -10.5482 -10.2506
     0.9052   1.7573   2.2118   2.7018   2.7495   3.5684   3.7732   3.8217
     4.5377   4.9521   5.2015   5.2390   5.4873   6.5563   7.8324   9.0052
    10.0818  13.2586

          k = 0.2500-0.0601-0.1365 (  3913 PWs)   bands (ev):

   -73.2418 -42.6381 -41.8667 -41.3338 -11.4676 -10.6842 -10.4651 -10.3346
     1.2392   1.5315   1.9960   2.2775   2.5767   2.8453   3.5120   3.8761
     4.0520   4.7929   5.0231   5.2151   5.8684   6.4476   7.6244   9.2132
     9.7064  13.5391

          k = 0.2500-0.0601 0.0484 (  3893 PWs)   bands (ev):

   -73.2418 -42.6380 -41.8667 -41.3338 -11.5578 -10.5410 -10.4730 -10.3656
     1.2641   1.6587   1.8766   2.3038   2.6495   2.6858   3.5003   3.7005
     4.1316   4.7884   5.1513   5.2035   5.7982   6.5619   7.5552   9.2810
     9.6783  13.2005

          k = 0.2500-0.0601-0.5062 (  3919 PWs)   bands (ev):

   -73.2418 -42.6381 -41.8668 -41.3338 -11.3608 -10.7020 -10.5432 -10.3683
     1.1887   1.5503   2.0451   2.3161   2.4977   2.8429   3.7110   3.9484
     4.1701   4.6908   4.8312   5.1805   5.9302   6.4286   7.6128   9.1821
     9.5991  14.3276

          k = 0.2500-0.0601-0.3213 (  3917 PWs)   bands (ev):

   -73.2418 -42.6381 -41.8668 -41.3338 -11.1853 -10.8997 -10.5526 -10.3517
     1.1949   1.5698   1.9044   2.2116   2.5332   3.2824   3.5994   3.9172
     4.1705   4.6543   4.7977   5.1992   5.9336   6.3473   7.6677   9.2452
     9.5293  14.7210

          k = 0.2500 0.0584-0.2318 (  3917 PWs)   bands (ev):

   -73.2418 -42.6381 -41.8668 -41.3338 -11.3639 -10.6994 -10.5408 -10.3696
     1.1855   1.5511   2.0455   2.3120   2.4998   2.8421   3.7108   3.9428
     4.1748   4.6962   4.8322   5.1827   5.9301   6.4269   7.6152   9.1739
     9.6027  14.3202

          k = 0.2500 0.0584-0.0470 (  3896 PWs)   bands (ev):

   -73.2418 -42.6380 -41.8667 -41.3338 -11.5596 -10.5398 -10.4719 -10.3655
     1.2634   1.6583   1.8788   2.3015   2.6478   2.6833   3.5027   3.6937
     4.1389   4.7833   5.1615   5.2044   5.7927   6.5636   7.5553   9.2776
     9.6808  13.1961

          k = 0.2500 0.0584-0.6016 (  3911 PWs)   bands (ev):

   -73.2418 -42.6381 -41.8667 -41.3338 -11.4668 -10.6831 -10.4661 -10.3357
     1.2386   1.5362   1.9933   2.2763   2.5818   2.8409   3.5128   3.8712
     4.0597   4.7865   5.0233   5.2154   5.8698   6.4505   7.6214   9.2154
     9.7037  13.5471

          k = 0.2500 0.0584-0.4167 (  3914 PWs)   bands (ev):

   -73.2418 -42.6381 -41.8668 -41.3338 -11.1839 -10.8997 -10.5524 -10.3535
     1.1952   1.5690   1.9015   2.2108   2.5346   3.2899   3.6044   3.9149
     4.1640   4.6523   4.8005   5.2003   5.9355   6.3464   7.6656   9.2436
     9.5277  14.7290

          k = 0.2500-0.2970 0.0543 (  3925 PWs)   bands (ev):

   -73.2418 -42.6381 -41.8668 -41.3338 -11.2971 -10.7903 -10.5615 -10.3348
     1.3542   1.6762   1.9118   2.2984   2.4916   2.9352   3.4266   3.8668
     4.1711   4.6594   4.8725   5.2656   5.8987   6.4446   7.6395   9.1988
     9.6612  14.2976

          k = 0.2500-0.2970 0.2391 (  3914 PWs)   bands (ev):

   -73.2418 -42.6380 -41.8668 -41.3338 -11.4241 -10.6714 -10.5191 -10.3532
     1.2680   1.7909   2.0237   2.3245   2.5028   2.7648   3.3111   3.7247
     4.2783   4.6792   4.9540   5.2433   5.8794   6.5576   7.5575   9.2697
     9.6022  14.0862

          k = 0.2500-0.2970-0.3155 (  3912 PWs)   bands (ev):

   -73.2418 -42.6381 -41.8667 -41.3338 -11.4230 -10.7437 -10.4843 -10.3101
     1.4403   1.6215   1.8105   2.4035   2.6183   2.8765   3.2270   3.7318
     3.9756   4.7969   5.0983   5.3062   5.8309   6.4611   7.6426   9.2527
     9.7661  13.4527

          k = 0.2500-0.2970-0.1306 (  3920 PWs)   bands (ev):

   -73.2418 -42.6381 -41.8668 -41.3338 -11.2532 -10.9413 -10.4794 -10.3020
     1.3723   1.6190   1.8515   2.3296   2.5857   2.9873   3.2554   3.9197
     4.0379   4.6727   5.0313   5.2781   5.8949   6.3437   7.7031   9.3325
     9.6326  14.2006

          k = 0.2500-0.1786-0.0411 (  3912 PWs)   bands (ev):

   -73.2418 -42.6381 -41.8667 -41.3338 -11.4206 -10.7451 -10.4854 -10.3105
     1.4413   1.6165   1.8062   2.4165   2.6180   2.8743   3.2279   3.7382
     3.9736   4.8004   5.0829   5.3119   5.8355   6.4556   7.6438   9.2529
     9.7640  13.4546

          k = 0.2500-0.1786 0.1438 (  3920 PWs)   bands (ev):

   -73.2418 -42.6380 -41.8668 -41.3338 -11.4215 -10.6744 -10.5192 -10.3532
     1.2667   1.7901   2.0258   2.3301   2.5028   2.7669   3.3073   3.7268
     4.2740   4.6766   4.9562   5.2420   5.8811   6.5559   7.5573   9.2717
     9.6013  14.0963

          k = 0.2500-0.1786-0.4108 (  3924 PWs)   bands (ev):

   -73.2418 -42.6381 -41.8668 -41.3338 -11.2981 -10.7902 -10.5627 -10.3325
     1.3571   1.6796   1.9119   2.3017   2.4834   2.9363   3.4146   3.8714
     4.1720   4.6629   4.8716   5.2629   5.8944   6.4492   7.6384   9.2046
     9.6623  14.2836

          k = 0.2500-0.1786-0.2260 (  3914 PWs)   bands (ev):

   -73.2418 -42.6381 -41.8667 -41.3338 -11.2540 -10.9422 -10.4782 -10.3012
     1.3732   1.6136   1.8603   2.3336   2.5819   2.9820   3.2496   3.9199
     4.0414   4.6708   5.0378   5.2751   5.8926   6.3442   7.7047   9.3338
     9.6347  14.1969

          k =-0.5000 0.1202 0.2729 (  3922 PWs)   bands (ev):

   -73.2394 -42.6350 -41.8611 -41.3731 -10.6515 -10.5740 -10.5511 -10.4596
     0.5469   1.0120   1.7153   2.1930   2.4637   3.3426   3.7554   4.0975
     4.2692   4.4232   4.4875   4.9473   5.6843   6.3937   7.4811   9.4208
     9.7532  14.9025

          k =-0.5000 0.1202 0.4578 (  3918 PWs)   bands (ev):

   -73.2393 -42.6350 -41.8611 -41.3731 -10.7019 -10.6392 -10.5323 -10.3683
     0.7584   1.0496   1.8302   2.2244   2.5264   3.2518   3.5321   3.9363
     4.1058   4.2396   4.6715   4.8536   5.6786   6.5446   7.4591   9.2291
     9.7431  15.4193

          k =-0.5000 0.1202-0.0968 (  3936 PWs)   bands (ev):

   -73.2393 -42.6350 -41.8611 -41.3731 -10.7393 -10.6816 -10.5104 -10.3157
     0.9287   1.1982   2.0192   2.2770   2.5560   2.9661   3.1976   3.8606
     4.0303   4.2448   4.5984   4.8739   5.6663   6.6596   7.4407   9.0351
     9.7623  15.5677

          k =-0.5000 0.2387 0.1776 (  3933 PWs)   bands (ev):

   -73.2394 -42.6351 -41.8611 -41.3731 -10.6505 -10.5759 -10.5503 -10.4596
     0.6077   0.9276   1.7326   2.1323   2.4831   3.4488   3.8269   4.0008
     4.2472   4.4238   4.4874   4.9355   5.6831   6.3970   7.4753   9.4271
     9.7355  15.2616

          k =-0.5000 0.2387 0.3624 (  3923 PWs)   bands (ev):

   -73.2393 -42.6350 -41.8611 -41.3731 -10.6914 -10.6619 -10.5211 -10.3671
     0.7374   1.0969   1.8276   2.0958   2.7017   3.1803   3.5243   3.9103
     4.0976   4.2501   4.7070   4.8533   5.6759   6.5484   7.4585   9.2157
     9.7563  15.2101

          k =-0.5000 0.2387-0.1922 (  3915 PWs)   bands (ev):

   -73.2393 -42.6350 -41.8611 -41.3731 -10.7534 -10.6625 -10.5197 -10.3111
     0.9588   1.1443   2.0607   2.2617   2.6079   2.8947   3.2614   3.8379
     3.9514   4.2583   4.5939   4.9116   5.6713   6.6674   7.4393   9.0394
     9.7549  15.5628

          k =-0.5000 0.2387-0.0073 (  3927 PWs)   bands (ev):

   -73.2394 -42.6350 -41.8611 -41.3731 -10.6907 -10.6565 -10.5249 -10.3695
     0.7342   1.1021   1.8204   2.0940   2.6994   3.1828   3.5234   3.9251
     4.0994   4.2509   4.7059   4.8505   5.6768   6.5430   7.4566   9.2217
     9.7543  15.2004

          k =-0.5000-0.1167 0.4637 (  3926 PWs)   bands (ev):

   -73.2394 -42.6350 -41.8611 -41.3731 -10.6493 -10.5737 -10.5553 -10.4578
     0.5479   1.0171   1.7132   2.1733   2.4512   3.3395   3.7881   4.1076
     4.2746   4.4258   4.4819   4.9450   5.6849   6.3883   7.4763   9.4198
     9.7516  14.8987

          k =-0.5000-0.1167 0.6485 (  3915 PWs)   bands (ev):

   -73.2393 -42.6350 -41.8611 -41.3731 -10.7034 -10.6423 -10.5308 -10.3649
     0.7628   1.0500   1.8287   2.2191   2.5105   3.2564   3.5321   3.9482
     4.1038   4.2456   4.6730   4.8542   5.6780   6.5445   7.4572   9.2247
     9.7435  15.4360

          k =-0.5000-0.1167 0.0939 (  3928 PWs)   bands (ev):

   -73.2393 -42.6350 -41.8611 -41.3731 -10.7423 -10.6865 -10.5064 -10.3114
     0.9384   1.1950   2.0225   2.2697   2.5382   2.9725   3.1978   3.8535
     4.0380   4.2484   4.6004   4.8772   5.6648   6.6650   7.4398   9.0229
     9.7644  15.5751

     the Fermi energy is     6.5272 ev

!    total energy              =    -520.61086516 Ry
     total all-electron energy =     -3720.864124 Ry
     estimated scf accuracy    <       0.00000048 Ry
     smearing contrib. (-TS)   =      -0.00435077 Ry
     internal energy E=F+TS    =    -520.60651439 Ry

     The total energy is F=E-TS. E is the sum of the following terms:
     one-electron contribution =    -242.71703344 Ry
     hartree contribution      =     145.99204582 Ry
     xc contribution           =     -61.15805409 Ry
     ewald contribution        =    -184.22991412 Ry
     Hubbard energy            =       0.24066467 Ry
     one-center paw contrib.   =    -178.73422323 Ry

     convergence has been achieved in  25 iterations
     force_hub    :     13.98s CPU      1.93s WALL (       1 calls)
     dndtau       :     11.67s CPU      1.70s WALL (     756 calls)
     dprojdtau    :      2.89s CPU      0.26s WALL (     756 calls)
     calc_doverla :      5.67s CPU      0.92s WALL (     756 calls)
     matel_dSdtau :      7.36s CPU      1.23s WALL (    1512 calls)

     Forces acting on atoms (cartesian axes, Ry/au):

     atom    1 type  1   force =     0.00167703   -0.01557695   -0.00898420
     atom    2 type  1   force =     0.00013435    0.00796541   -0.00957406
     atom    3 type  3   force =    -0.00048967   -0.04368085   -0.00951521
     atom    4 type  2   force =    -0.00113836    0.03639850    0.02207108
     atom    5 type  2   force =     0.00070493   -0.00973713   -0.00432663
     atom    6 type  2   force =     0.00011859    0.01165732    0.01093078
     atom    7 type  2   force =    -0.00100687    0.01297370   -0.00060177

     Total force =     0.069516     Total SCF correction =     0.001618


     Computing stress (Cartesian axis) and pressure

     stres_hub    :     46.56s CPU      5.09s WALL (       1 calls)
     dprojdepsilo :     36.06s CPU      4.10s WALL (     324 calls)
     dprojdeps1   :      4.66s CPU      0.47s WALL (     324 calls)
     dprojdeps2   :     18.52s CPU      2.32s WALL (     324 calls)
     dprojdeps3   :     12.88s CPU      1.31s WALL (     324 calls)
          total   stress  (Ry/bohr**3)                   (kbar)     P=      -40.13
  -0.00005813   0.00000117  -0.00000029           -8.55        0.17       -0.04
   0.00000117  -0.00044123  -0.00016458            0.17      -64.91      -24.21
  -0.00000029  -0.00016458  -0.00031910           -0.04      -24.21      -46.94


     BFGS Geometry Optimization
     Energy error            =      9.3E-03 Ry
     Gradient error          =      4.4E-02 Ry/Bohr
     Cell gradient error     =      6.5E+01 kbar

     number of scf cycles    =   1
     number of bfgs steps    =   0

     enthalpy           new  =    -520.6108651616 Ry

     new trust radius        =       0.0525752855 bohr
     new conv_thr            =       0.0000010000 Ry

     new unit-cell volume =    488.39602 a.u.^3 (    72.37282 Ang^3 )
     density =      3.84417 g/cm^3

CELL_PARAMETERS (angstrom)
   2.953864224   0.000086439  -0.000021115
   1.498954249   6.174046753  -0.025697770
   2.953816937   3.168551973   3.955221281

ATOMIC_POSITIONS (angstrom)
Mg               3.4246387532        4.8333694778        1.5060883261
Mg               3.4301122614        1.0750746473        0.3876552399
Mn               4.9092289438        2.3471838612        2.5248089696
O                3.4553668971        6.8787317217        1.7544072630
O                4.9052141285        4.3008014944        2.8860299717
O                3.4318695946        2.8061572427        1.3680029074
O                4.9323088011        8.3543844428        3.8566853079



     Writing config-only to output data dir .\out\\qgan.save\ :
     XML data file
     NEW-OLD atomic charge density approx. for the potential
     New effective cutoffs (rho, wfc):  493.03   61.66

     Check: negative core charge=   -0.000002

     Atomic wfc used for Hubbard projectors are orthogonalized


     total cpu time spent up to now is       81.5 secs

     Self-consistent Calculation

     iteration #  1     ecut=    60.00 Ry     beta= 0.70
     Davidson diagonalization with overlap
     ethr =  1.00E-06,  avg # of iterations = 13.4

     =================== HUBBARD OCCUPATIONS ===================
     ------------------------ ATOM    3 ------------------------
     Tr[ns(  3)] =   5.29241
     eigenvalues:
       0.215  0.324  0.407  0.727  0.974
     eigenvectors (columns):
       0.553 -0.000 -0.201 -0.004  0.809
      -0.001 -0.957 -0.006  0.290  0.000
      -0.798  0.004 -0.407  0.002  0.445
       0.240  0.005 -0.891  0.001 -0.385
      -0.004 -0.290 -0.003 -0.957 -0.003
     occupation matrix ns (before diag.):
       0.719 -0.000  0.289 -0.202  0.000
      -0.000  0.358  0.000  0.001 -0.112
       0.289  0.000  0.397 -0.060 -0.002
      -0.202  0.001 -0.060  0.480  0.001
       0.000 -0.112 -0.002  0.001  0.693

     Number of occupied Hubbard levels =    5.2924

     total cpu time spent up to now is       87.8 secs

     total energy              =    -520.60998459 Ry
     estimated scf accuracy    <       0.00962342 Ry

     iteration #  2     ecut=    60.00 Ry     beta= 0.70
     Davidson diagonalization with overlap
     ethr =  2.24E-05,  avg # of iterations =  5.0

     total cpu time spent up to now is       90.8 secs

     total energy              =    -520.60270165 Ry
     estimated scf accuracy    <       0.16369453 Ry

     iteration #  3     ecut=    60.00 Ry     beta= 0.70
     Davidson diagonalization with overlap
     ethr =  2.24E-05,  avg # of iterations =  3.7

     total cpu time spent up to now is       93.4 secs

     total energy              =    -520.61576901 Ry
     estimated scf accuracy    <       0.00408385 Ry

     iteration #  4     ecut=    60.00 Ry     beta= 0.70
     Davidson diagonalization with overlap
     ethr =  9.50E-06,  avg # of iterations =  2.1

     total cpu time spent up to now is       95.9 secs

     total energy              =    -520.61664051 Ry
     estimated scf accuracy    <       0.00120534 Ry

     iteration #  5     ecut=    60.00 Ry     beta= 0.70
     Davidson diagonalization with overlap
     ethr =  2.80E-06,  avg # of iterations =  2.4

     total cpu time spent up to now is       98.2 secs

     total energy              =    -520.61683159 Ry
     estimated scf accuracy    <       0.00010024 Ry

     iteration #  6     ecut=    60.00 Ry     beta= 0.70
     Davidson diagonalization with overlap
     ethr =  2.33E-07,  avg # of iterations = 11.1

     total cpu time spent up to now is      101.8 secs

     total energy              =    -520.61692063 Ry
     estimated scf accuracy    <       0.00011677 Ry

     iteration #  7     ecut=    60.00 Ry     beta= 0.70
     Davidson diagonalization with overlap
     ethr =  2.33E-07,  avg # of iterations =  1.3

     total cpu time spent up to now is      103.9 secs

     total energy              =    -520.61692847 Ry
     estimated scf accuracy    <       0.00001848 Ry

     iteration #  8     ecut=    60.00 Ry     beta= 0.70
     Davidson diagonalization with overlap
     ethr =  4.30E-08,  avg # of iterations =  9.2

     total cpu time spent up to now is      107.3 secs

     total energy              =    -520.61694364 Ry
     estimated scf accuracy    <       0.00002214 Ry

     iteration #  9     ecut=    60.00 Ry     beta= 0.70
     Davidson diagonalization with overlap
     ethr =  4.30E-08,  avg # of iterations =  1.3

     total cpu time spent up to now is      109.5 secs

     total energy              =    -520.61694272 Ry
     estimated scf accuracy    <       0.00001150 Ry

     iteration # 10     ecut=    60.00 Ry     beta= 0.70
     Davidson diagonalization with overlap
     ethr =  2.67E-08,  avg # of iterations =  2.1

     total cpu time spent up to now is      111.8 secs

     total energy              =    -520.61694382 Ry
     estimated scf accuracy    <       0.00000178 Ry

     iteration # 11     ecut=    60.00 Ry     beta= 0.70
     Davidson diagonalization with overlap
     c_bands:  1 eigenvalues not converged
     c_bands:  3 eigenvalues not converged
     ethr =  4.14E-09,  avg # of iterations = 12.9

     total cpu time spent up to now is      116.3 secs

     End of self-consistent calculation

     =================== HUBBARD OCCUPATIONS ===================
     ------------------------ ATOM    3 ------------------------
     Tr[ns(  3)] =   5.22540
     eigenvalues:
       0.207  0.319  0.400  0.713  0.973
     eigenvectors (columns):
      -0.552  0.000  0.205 -0.002  0.808
       0.001  0.957  0.004  0.290 -0.000
       0.798 -0.003  0.409  0.002  0.442
      -0.240 -0.004  0.889  0.002 -0.389
       0.003  0.290  0.003 -0.957 -0.001
     occupation matrix ns (before diag.):
       0.715 -0.000  0.290 -0.206  0.000
      -0.000  0.352  0.000  0.001 -0.109
       0.290  0.000  0.389 -0.062 -0.001
      -0.206  0.001 -0.062  0.476 -0.000
       0.000 -0.109 -0.001 -0.000  0.680

     Number of occupied Hubbard levels =    5.2254

          k = 0.0000 0.0000 0.0000 (  3893 PWs)   bands (ev):

   -72.9468 -42.3620 -41.5836 -40.9929 -11.9113 -10.5500 -10.3009 -10.1284
     0.7590   1.4969   2.1872   2.6179   2.9944   3.9446   4.1721   4.3842
     4.6327   5.3631   5.5999   5.6822   6.0414   6.9582   7.9690   9.9838
    10.3983  11.6984

          k = 0.0000 0.0008 0.1864 (  3895 PWs)   bands (ev):

   -72.9467 -42.3621 -41.5837 -40.9929 -11.7169 -10.7153 -10.3773 -10.1476
     0.9551   1.7539   2.0030   2.9985   3.0047   3.8976   4.0584   4.5012
     4.5777   4.9436   5.5008   5.5949   5.7757   6.9199   8.0718   9.7056
    10.4464  12.8090

          k =-0.0000-0.0016-0.3727 (  3894 PWs)   bands (ev):

   -72.9466 -42.3621 -41.5837 -40.9929 -11.3891 -11.0015 -10.4519 -10.1826
     1.2261   1.7817   2.5105   3.0095   3.0096   3.4690   3.8823   4.5148
     4.5986   4.7707   5.4368   5.5018   5.6572   6.8807   8.1340   9.4947
    10.4949  14.4328

          k =-0.0000 0.1194-0.0956 (  3889 PWs)   bands (ev):

   -72.9468 -42.3620 -41.5837 -40.9929 -11.8090 -10.5934 -10.4165 -10.1129
     0.9939   1.4883   2.1554   2.7479   3.0297   3.9624   4.1292   4.3345
     4.6797   5.0207   5.4462   5.6289   6.0377   6.9839   7.9784  10.0446
    10.4436  12.4868

          k =-0.0000 0.1202 0.0907 (  3904 PWs)   bands (ev):

   -72.9468 -42.3621 -41.5836 -40.9929 -11.7584 -10.7992 -10.2828 -10.0910
     0.8942   1.8144   2.0401   2.8206   2.9686   3.8202   3.9379   4.5045
     4.6366   5.1933   5.5279   5.5798   5.8591   6.9571   8.0672   9.7003
    10.4002  12.4493

          k =-0.0000 0.1178-0.4683 (  3922 PWs)   bands (ev):

   -72.9467 -42.3621 -41.5837 -40.9929 -11.4361 -11.0794 -10.3640 -10.1189
     1.2528   1.6180   2.4464   2.9754   3.0882   3.5044   3.9124   4.2961
     4.6150   5.0367   5.4259   5.4820   5.7005   6.9170   8.1646   9.4738
    10.4488  13.7896

          k =-0.0000 0.1186-0.2820 (  3906 PWs)   bands (ev):

   -72.9467 -42.3621 -41.5837 -40.9929 -11.5682 -10.8056 -10.4895 -10.1355
     1.1996   1.7554   2.1813   2.9522   3.0385   3.8103   3.9109   4.4593
     4.4855   4.8879   5.4039   5.5369   5.7636   6.9483   8.0951   9.7868
    10.4914  14.0500

          k = 0.0000-0.2388 0.1913 (  3908 PWs)   bands (ev):

   -72.9467 -42.3620 -41.5837 -40.9929 -11.6795 -10.7083 -10.4833 -10.1008
     1.0011   1.7888   2.3495   2.8120   3.0676   3.5996   3.9818   4.2823
     4.5584   5.0095   5.4237   5.5752   6.0423   7.0093   7.9806  10.1112
    10.4883  13.7868

          k = 0.0000-0.2380 0.3776 (  3906 PWs)   bands (ev):

   -72.9467 -42.3621 -41.5837 -40.9929 -11.6224 -10.8740 -10.3934 -10.0838
     1.2887   1.7454   1.9474   2.8717   3.0006   3.7702   3.9553   4.4620
     4.7308   4.8868   5.4123   5.5226   5.7939   6.9837   8.1034   9.7836
    10.4454  13.3648

          k = 0.0000-0.2403-0.1814 (  3902 PWs)   bands (ev):

   -72.9468 -42.3621 -41.5836 -40.9929 -11.4751 -11.1496 -10.2773 -10.0696
     1.1011   1.7927   2.3249   2.9425   2.9618   3.6985   3.9439   4.0472
     4.6242   5.1962   5.4690   5.5181   5.7647   6.9515   8.1412   9.4415
    10.4025  13.6679

          k = 0.2504-0.0614-0.1378 (  3913 PWs)   bands (ev):

   -72.9437 -42.3589 -41.5778 -41.0337 -11.3450 -10.5799 -10.2334 -10.1043
     1.3718   1.6503   2.1147   2.4122   2.7639   3.0320   3.7569   4.0193
     4.2435   4.9998   5.2863   5.4636   6.1331   6.8483   7.9541   9.6484
    10.0766  13.8987

          k = 0.2504-0.0606 0.0485 (  3893 PWs)   bands (ev):

   -72.9437 -42.3589 -41.5778 -41.0337 -11.4437 -10.4447 -10.2777 -10.0807
     1.3954   1.7867   2.0193   2.4326   2.8224   2.8598   3.6855   3.9271
     4.2905   5.0036   5.3704   5.5047   6.0627   6.9560   7.8798   9.7161
    10.0481  13.5613

          k = 0.2504-0.0629-0.5105 (  3919 PWs)   bands (ev):

   -72.9438 -42.3589 -41.5778 -41.0337 -11.2499 -10.5551 -10.3585 -10.1235
     1.3110   1.6586   2.1729   2.5071   2.6914   3.0041   3.9431   4.0745
     4.3644   4.9431   5.0426   5.4312   6.1883   6.8401   7.9450   9.6039
     9.9827  14.6729

          k = 0.2504-0.0621-0.3242 (  3917 PWs)   bands (ev):

   -72.9438 -42.3590 -41.5778 -41.0337 -11.0625 -10.7755 -10.3171 -10.1487
     1.3093   1.6537   2.0556   2.4019   2.7546   3.3811   3.8326   4.1314
     4.3484   4.8837   5.0091   5.4351   6.2012   6.7562   8.0086   9.7215
     9.8559  15.0439

          k = 0.2504 0.0580-0.2335 (  3917 PWs)   bands (ev):

   -72.9438 -42.3589 -41.5778 -41.0337 -11.2528 -10.5533 -10.3562 -10.1242
     1.3081   1.6596   2.1731   2.5043   2.6925   3.0023   3.9418   4.0701
     4.3704   4.9504   5.0394   5.4334   6.1890   6.8386   7.9470   9.5987
     9.9842  14.6657

          k = 0.2504 0.0588-0.0471 (  3896 PWs)   bands (ev):

   -72.9437 -42.3589 -41.5778 -41.0337 -11.4455 -10.4443 -10.2758 -10.0806
     1.3950   1.7857   2.0215   2.4301   2.8127   2.8667   3.6852   3.9219
     4.2983   4.9965   5.3829   5.5042   6.0584   6.9569   7.8798   9.7139
    10.0499  13.5570

          k = 0.2504 0.0565-0.6062 (  3911 PWs)   bands (ev):

   -72.9437 -42.3589 -41.5778 -41.0337 -11.3445 -10.5785 -10.2351 -10.1049
     1.3704   1.6542   2.1132   2.4112   2.7699   3.0269   3.7574   4.0178
     4.2479   4.9946   5.2848   5.4644   6.1348   6.8509   7.9516   9.6486
    10.0754  13.9070

          k = 0.2504 0.0573-0.4198 (  3914 PWs)   bands (ev):

   -72.9438 -42.3590 -41.5778 -41.0337 -11.0620 -10.7739 -10.3181 -10.1500
     1.3086   1.6535   2.0532   2.4010   2.7566   3.3880   3.8366   4.1289
     4.3434   4.8802   5.0128   5.4362   6.2023   6.7565   8.0066   9.7198
     9.8542  15.0502

          k = 0.2504-0.3001 0.0535 (  3925 PWs)   bands (ev):

   -72.9438 -42.3589 -41.5778 -41.0337 -11.1799 -10.6595 -10.3536 -10.1048
     1.4760   1.7952   2.0657   2.4467   2.6876   3.1039   3.6383   4.0169
     4.3526   4.9196   5.0929   5.5022   6.1678   6.8509   7.9691   9.6066
    10.0593  14.6478

          k = 0.2504-0.2994 0.2398 (  3914 PWs)   bands (ev):

   -72.9438 -42.3589 -41.5778 -41.0338 -11.3151 -10.4949 -10.3890 -10.0811
     1.3932   1.9103   2.2067   2.4939   2.6764   2.8873   3.4988   3.9087
     4.4728   4.9415   5.1245   5.5314   6.1386   6.9655   7.8770   9.6690
    10.0097  14.4413

          k = 0.2504-0.3017-0.3193 (  3912 PWs)   bands (ev):

   -72.9437 -42.3589 -41.5778 -41.0337 -11.2931 -10.6473 -10.2444 -10.0887
     1.5982   1.7521   1.9025   2.5422   2.7827   3.0565   3.4909   3.8863
     4.1430   5.0419   5.3417   5.5422   6.1060   6.8573   7.9706   9.6711
    10.1523  13.8177

          k = 0.2504-0.3009-0.1329 (  3920 PWs)   bands (ev):

   -72.9437 -42.3590 -41.5778 -41.0337 -11.0811 -10.8765 -10.2241 -10.1085
     1.5358   1.7183   1.9313   2.5095   2.7810   3.1215   3.4872   4.1302
     4.2344   4.8581   5.2986   5.5053   6.1634   6.7509   8.0353   9.8092
     9.9579  14.5564

          k = 0.2504-0.1807-0.0422 (  3912 PWs)   bands (ev):

   -72.9437 -42.3589 -41.5778 -41.0337 -11.2906 -10.6486 -10.2462 -10.0886
     1.5968   1.7508   1.8993   2.5526   2.7840   3.0522   3.4921   3.8917
     4.1421   5.0460   5.3265   5.5477   6.1087   6.8541   7.9714   9.6721
    10.1493  13.8190

          k = 0.2504-0.1800 0.1442 (  3920 PWs)   bands (ev):

   -72.9438 -42.3589 -41.5778 -41.0338 -11.3126 -10.4970 -10.3900 -10.0811
     1.3916   1.9100   2.2089   2.4991   2.6802   2.8841   3.4968   3.9104
     4.4690   4.9378   5.1272   5.5306   6.1395   6.9646   7.8769   9.6696
    10.0098  14.4511

          k = 0.2504-0.1823-0.4149 (  3924 PWs)   bands (ev):

   -72.9438 -42.3589 -41.5778 -41.0337 -11.1805 -10.6610 -10.3525 -10.1035
     1.4792   1.7986   2.0648   2.4499   2.6773   3.1072   3.6279   4.0205
     4.3532   4.9237   5.0926   5.4993   6.1647   6.8534   7.9684   9.6108
    10.0617  14.6350

          k = 0.2504-0.1815-0.2285 (  3914 PWs)   bands (ev):

   -72.9437 -42.3590 -41.5778 -41.0337 -11.0812 -10.8781 -10.2224 -10.1081
     1.5378   1.7139   1.9373   2.5131   2.7759   3.1192   3.4811   4.1313
     4.2368   4.8560   5.3058   5.5019   6.1617   6.7503   8.0369   9.8101
     9.9606  14.5536

          k =-0.5007 0.1227 0.2756 (  3922 PWs)   bands (ev):

   -72.9412 -42.3558 -41.5719 -41.0742 -10.6188 -10.4317 -10.3218 -10.1760
     0.6712   1.1922   1.8394   2.2829   2.5880   3.5324   3.8830   4.2770
     4.4838   4.7304   4.7490   5.2213   5.9527   6.7375   7.8331   9.9100
    10.0873  15.2583

          k =-0.5007 0.1235 0.4620 (  3918 PWs)   bands (ev):

   -72.9412 -42.3558 -41.5719 -41.0742 -10.6726 -10.4510 -10.3041 -10.1265
     0.8813   1.2370   1.9473   2.3556   2.6154   3.4407   3.6710   4.1751
     4.3559   4.4979   4.8808   5.0975   5.9485   6.9014   7.8119   9.7140
    10.0646  15.7707

          k =-0.5007 0.1212-0.0971 (  3936 PWs)   bands (ev):

   -72.9412 -42.3558 -41.5719 -41.0742 -10.7155 -10.4732 -10.2852 -10.0861
     1.0719   1.3569   2.1619   2.4110   2.6653   3.0985   3.3808   4.1138
     4.2727   4.5146   4.8126   5.0469   5.9389   7.0263   7.7949   9.5047
    10.0841  15.9173

          k =-0.5007 0.2421 0.1800 (  3933 PWs)   bands (ev):

   -72.9412 -42.3558 -41.5719 -41.0742 -10.6188 -10.4312 -10.3227 -10.1756
     0.7280   1.1087   1.8445   2.2682   2.5726   3.6704   3.9007   4.2072
     4.4590   4.7119   4.7665   5.2136   5.9515   6.7409   7.8262   9.9251
    10.0614  15.6183

          k =-0.5007 0.2429 0.3664 (  3923 PWs)   bands (ev):

   -72.9412 -42.3558 -41.5719 -41.0742 -10.6737 -10.4564 -10.2980 -10.1258
     0.8712   1.2698   1.9487   2.2151   2.8036   3.3526   3.6753   4.1509
     4.3582   4.5051   4.9076   5.0981   5.9464   6.9062   7.8114   9.6978
    10.0806  15.5636

          k =-0.5007 0.2406-0.1927 (  3915 PWs)   bands (ev):

   -72.9412 -42.3558 -41.5719 -41.0742 -10.7190 -10.4681 -10.2898 -10.0826
     1.0934   1.3184   2.1475   2.4583   2.7111   3.0237   3.4359   4.0824
     4.2169   4.5138   4.8008   5.0972   5.9431   7.0334   7.7942   9.5110
    10.0748  15.9049

          k =-0.5007 0.2413-0.0063 (  3927 PWs)   bands (ev):

   -72.9412 -42.3558 -41.5719 -41.0742 -10.6720 -10.4530 -10.3025 -10.1266
     0.8683   1.2736   1.9413   2.2156   2.8005   3.3562   3.6740   4.1643
     4.3608   4.5043   4.9076   5.0950   5.9470   6.9023   7.8091   9.7030
    10.0792  15.5516

          k =-0.5007-0.1161 0.4669 (  3926 PWs)   bands (ev):

   -72.9412 -42.3558 -41.5719 -41.0742 -10.6192 -10.4285 -10.3263 -10.1741
     0.6729   1.1955   1.8363   2.2672   2.5754   3.5320   3.9063   4.2899
     4.4883   4.7360   4.7423   5.2188   5.9531   6.7343   7.8280   9.9081
    10.0868  15.2513

          k =-0.5007-0.1153 0.6533 (  3915 PWs)   bands (ev):

   -72.9412 -42.3558 -41.5719 -41.0742 -10.6746 -10.4522 -10.3028 -10.1241
     0.8864   1.2363   1.9445   2.3506   2.6037   3.4439   3.6706   4.1881
     4.3496   4.5053   4.8816   5.0984   5.9481   6.9017   7.8100   9.7098
    10.0651  15.7873

          k =-0.5007-0.1176 0.0942 (  3928 PWs)   bands (ev):

   -72.9412 -42.3558 -41.5719 -41.0742 -10.7187 -10.4769 -10.2806 -10.0833
     1.0825   1.3535   2.1611   2.4037   2.6546   3.0991   3.3852   4.1073
     4.2788   4.5138   4.8193   5.0481   5.9380   7.0305   7.7946   9.4937
    10.0858  15.9266

     the Fermi energy is     6.9216 ev

!    total energy              =    -520.61694689 Ry
     total all-electron energy =     -3720.870205 Ry
     estimated scf accuracy    <       0.00000005 Ry
     smearing contrib. (-TS)   =      -0.00507934 Ry
     internal energy E=F+TS    =    -520.61186755 Ry

     The total energy is F=E-TS. E is the sum of the following terms:
     one-electron contribution =    -241.77340310 Ry
     hartree contribution      =     145.91133657 Ry
     xc contribution           =     -61.24676372 Ry
     ewald contribution        =    -185.00479475 Ry
     Hubbard energy            =       0.24432891 Ry
     one-center paw contrib.   =    -178.74257145 Ry

     convergence has been achieved in  11 iterations
     force_hub    :     29.61s CPU      4.07s WALL (       2 calls)
     dndtau       :     25.72s CPU      3.58s WALL (    1512 calls)
     dprojdtau    :      5.17s CPU      0.58s WALL (    1512 calls)
     calc_doverla :     13.22s CPU      1.92s WALL (    1512 calls)
     matel_dSdtau :     16.92s CPU      2.55s WALL (    3024 calls)

     Forces acting on atoms (cartesian axes, Ry/au):

     atom    1 type  1   force =     0.00164305   -0.01346723   -0.00885138
     atom    2 type  1   force =     0.00002954    0.00671311   -0.01603496
     atom    3 type  3   force =    -0.00037725   -0.01551578    0.00539130
     atom    4 type  2   force =    -0.00093350    0.00991267    0.01411831
     atom    5 type  2   force =     0.00062536    0.00065391    0.00020607
     atom    6 type  2   force =     0.00008670    0.00504693   -0.00138091
     atom    7 type  2   force =    -0.00107390    0.00665638    0.00655157

     Total force =     0.035350     Total SCF correction =     0.000260


     Computing stress (Cartesian axis) and pressure

     stres_hub    :     91.31s CPU     10.32s WALL (       2 calls)
     dprojdepsilo :     72.42s CPU      8.34s WALL (     648 calls)
     dprojdeps1   :      8.53s CPU      0.94s WALL (     648 calls)
     dprojdeps2   :     39.17s CPU      4.70s WALL (     648 calls)
     dprojdeps3   :     24.70s CPU      2.69s WALL (     648 calls)
          total   stress  (Ry/bohr**3)                   (kbar)     P=       -1.67
   0.00008730  -0.00000102   0.00000065           12.84       -0.15        0.10
  -0.00000102  -0.00005382  -0.00004264           -0.15       -7.92       -6.27
   0.00000065  -0.00004264  -0.00006756            0.10       -6.27       -9.94

     Energy error            =      6.1E-03 Ry
     Gradient error          =      1.6E-02 Ry/Bohr
     Cell gradient error     =      1.3E+01 kbar

     number of scf cycles    =   2
     number of bfgs steps    =   1

     enthalpy           old  =    -520.6108651616 Ry
     enthalpy           new  =    -520.6169468912 Ry

     CASE: enthalpy          _new < enthalpy          _old

     new trust radius        =       0.0293017265 bohr
     new conv_thr            =       0.0000001603 Ry

     new unit-cell volume =    486.23288 a.u.^3 (    72.05228 Ang^3 )
     density =      3.86127 g/cm^3

CELL_PARAMETERS (angstrom)
   2.961976361  -0.000002450   0.000040888
   1.502880367   6.151896836  -0.038788505
   2.961914616   3.148677251   3.934362634

ATOMIC_POSITIONS (angstrom)
Mg               3.4352662801        4.8019246880        1.4834603654
Mg               3.4395399865        1.0758434959        0.3716973355
Mn               4.9223755151        2.3186371522        2.5141127590
O                3.4639056140        6.8600760416        1.7453062188
O                4.9191289720        4.2787688738        2.8664127076
O                3.4413101657        2.7976124286        1.3570184709
O                4.9448100905        8.3217880505        3.8297245622



     Writing config-only to output data dir .\out\\qgan.save\ :
     XML data file
     NEW-OLD atomic charge density approx. for the potential
     New effective cutoffs (rho, wfc):  498.23   62.35

     Check: negative core charge=   -0.000002

     Atomic wfc used for Hubbard projectors are orthogonalized


     total cpu time spent up to now is      126.7 secs

     Self-consistent Calculation

     iteration #  1     ecut=    60.00 Ry     beta= 0.70
     Davidson diagonalization with overlap
     ethr =  1.00E-06,  avg # of iterations = 11.2

     =================== HUBBARD OCCUPATIONS ===================
     ------------------------ ATOM    3 ------------------------
     Tr[ns(  3)] =   5.26262
     eigenvalues:
       0.219  0.318  0.403  0.717  0.974
     eigenvectors (columns):
       0.554 -0.000  0.203 -0.001  0.808
      -0.001 -0.958  0.003  0.288 -0.000
      -0.795  0.003  0.417  0.002  0.440
       0.248  0.003  0.886  0.001 -0.393
      -0.002 -0.288  0.003 -0.958 -0.001
     occupation matrix ns (before diag.):
       0.719 -0.000  0.284 -0.206  0.000
      -0.000  0.352  0.000  0.000 -0.110
       0.284  0.000  0.397 -0.062 -0.001
      -0.206  0.000 -0.062  0.480 -0.000
       0.000 -0.110 -0.001 -0.000  0.684

     Number of occupied Hubbard levels =    5.2626

     total cpu time spent up to now is      132.3 secs

     total energy              =    -520.61652114 Ry
     estimated scf accuracy    <       0.00310687 Ry

     iteration #  2     ecut=    60.00 Ry     beta= 0.70
     Davidson diagonalization with overlap
     ethr =  7.23E-06,  avg # of iterations =  5.1

     total cpu time spent up to now is      135.1 secs

     total energy              =    -520.61403533 Ry
     estimated scf accuracy    <       0.04211800 Ry

     iteration #  3     ecut=    60.00 Ry     beta= 0.70
     Davidson diagonalization with overlap
     ethr =  7.23E-06,  avg # of iterations =  3.4

     total cpu time spent up to now is      137.7 secs

     total energy              =    -520.61788339 Ry
     estimated scf accuracy    <       0.00201217 Ry

     iteration #  4     ecut=    60.00 Ry     beta= 0.70
     Davidson diagonalization with overlap
     ethr =  4.68E-06,  avg # of iterations =  2.0

     total cpu time spent up to now is      139.8 secs

     total energy              =    -520.61830218 Ry
     estimated scf accuracy    <       0.00023624 Ry

     iteration #  5     ecut=    60.00 Ry     beta= 0.70
     Davidson diagonalization with overlap
     ethr =  5.49E-07,  avg # of iterations =  4.5

     total cpu time spent up to now is      142.3 secs

     total energy              =    -520.61838824 Ry
     estimated scf accuracy    <       0.00012982 Ry

     iteration #  6     ecut=    60.00 Ry     beta= 0.70
     Davidson diagonalization with overlap
     ethr =  3.02E-07,  avg # of iterations =  1.9

     total cpu time spent up to now is      144.4 secs

     total energy              =    -520.61839278 Ry
     estimated scf accuracy    <       0.00004909 Ry

     iteration #  7     ecut=    60.00 Ry     beta= 0.70
     Davidson diagonalization with overlap
     ethr =  1.14E-07,  avg # of iterations =  2.2

     total cpu time spent up to now is      146.5 secs

     total energy              =    -520.61839967 Ry
     estimated scf accuracy    <       0.00000479 Ry

     iteration #  8     ecut=    60.00 Ry     beta= 0.70
     Davidson diagonalization with overlap
     ethr =  1.11E-08,  avg # of iterations =  8.1

     total cpu time spent up to now is      150.2 secs

     total energy              =    -520.61840575 Ry
     estimated scf accuracy    <       0.00000550 Ry

     iteration #  9     ecut=    60.00 Ry     beta= 0.70
     Davidson diagonalization with overlap
     ethr =  1.11E-08,  avg # of iterations =  1.8

     total cpu time spent up to now is      152.2 secs

     total energy              =    -520.61840605 Ry
     estimated scf accuracy    <       0.00000156 Ry

     iteration # 10     ecut=    60.00 Ry     beta= 0.70
     Davidson diagonalization with overlap
     ethr =  3.62E-09,  avg # of iterations =  7.4

     total cpu time spent up to now is      155.2 secs

     total energy              =    -520.61840698 Ry
     estimated scf accuracy    <       0.00000050 Ry

     iteration # 11     ecut=    60.00 Ry     beta= 0.70
     Davidson diagonalization with overlap
     ethr =  1.17E-09,  avg # of iterations =  9.5

     total cpu time spent up to now is      158.6 secs

     total energy              =    -520.61840768 Ry
     estimated scf accuracy    <       0.00000063 Ry

     iteration # 12     ecut=    60.00 Ry     beta= 0.70
     Davidson diagonalization with overlap
     ethr =  1.17E-09,  avg # of iterations =  1.6

     total cpu time spent up to now is      160.7 secs

     total energy              =    -520.61840733 Ry
     estimated scf accuracy    <       0.00000029 Ry

     iteration # 13     ecut=    60.00 Ry     beta= 0.70
     Davidson diagonalization with overlap
     ethr =  6.77E-10,  avg # of iterations =  5.7

     total cpu time spent up to now is      163.5 secs

     total energy              =    -520.61840823 Ry
     estimated scf accuracy    <       0.00000036 Ry

     iteration # 14     ecut=    60.00 Ry     beta= 0.70
     Davidson diagonalization with overlap
     ethr =  6.77E-10,  avg # of iterations =  2.0

     total cpu time spent up to now is      165.7 secs

     total energy              =    -520.61840792 Ry
     estimated scf accuracy    <       0.00000026 Ry

     iteration # 15     ecut=    60.00 Ry     beta= 0.70
     Davidson diagonalization with overlap
     ethr =  5.99E-10,  avg # of iterations =  2.9

     total cpu time spent up to now is      168.0 secs

     End of self-consistent calculation

     =================== HUBBARD OCCUPATIONS ===================
     ------------------------ ATOM    3 ------------------------
     Tr[ns(  3)] =   5.23090
     eigenvalues:
       0.215  0.317  0.400  0.711  0.973
     eigenvectors (columns):
       0.545  0.001  0.205  0.000  0.813
      -0.001  0.959  0.001  0.283 -0.000
      -0.799 -0.002  0.418  0.000  0.431
       0.252 -0.001  0.885  0.002 -0.392
      -0.000  0.283  0.002 -0.959 -0.000
     occupation matrix ns (before diag.):
       0.724  0.000  0.282 -0.208 -0.000
       0.000  0.348 -0.000  0.000 -0.107
       0.282 -0.000  0.388 -0.059 -0.000
      -0.208  0.000 -0.059  0.476 -0.000
      -0.000 -0.107 -0.000 -0.000  0.679

     Number of occupied Hubbard levels =    5.2309

          k = 0.0000 0.0000 0.0000 (  3893 PWs)   bands (ev):

   -72.8693 -42.2967 -41.5123 -40.9090 -11.8908 -10.5740 -10.2340 -10.0159
     0.8047   1.5132   2.1952   2.6819   3.0751   3.9114   4.2164   4.3671
     4.6569   5.4632   5.6379   5.7368   6.1290   7.0993   8.0456  10.1182
    10.4385  11.7787

          k =-0.0000 0.0012 0.1870 (  3895 PWs)   bands (ev):

   -72.8692 -42.2968 -41.5124 -40.9090 -11.6966 -10.7184 -10.3124 -10.0555
     0.9902   1.7940   2.0007   3.0655   3.0781   3.8744   4.0691   4.4809
     4.6664   5.0020   5.5744   5.6513   5.8365   7.0584   8.1481   9.8322
    10.4858  12.8852

          k = 0.0000-0.0024-0.3741 (  3894 PWs)   bands (ev):

   -72.8691 -42.2968 -41.5124 -40.9091 -11.3737 -10.9835 -10.3869 -10.1087
     1.2168   1.8564   2.5479   3.0343   3.0748   3.5103   3.8700   4.5713
     4.5872   4.8561   5.5080   5.5609   5.6945   7.0168   8.2183   9.6093
    10.5334  14.4877

          k = 0.0000 0.1196-0.0957 (  3889 PWs)   bands (ev):

   -72.8692 -42.2967 -41.5123 -40.9090 -11.7905 -10.6040 -10.3586 -10.0034
     1.0301   1.5184   2.1802   2.7913   3.1111   3.9357   4.1538   4.3092
     4.7566   5.0531   5.5252   5.6868   6.1262   7.1226   8.0467  10.1794
    10.4840  12.5652

          k =-0.0000 0.1208 0.0913 (  3904 PWs)   bands (ev):

   -72.8693 -42.2968 -41.5123 -40.9090 -11.7331 -10.8043 -10.2092 -10.0106
     0.9471   1.8028   2.0641   2.8997   3.0423   3.8403   3.9120   4.4841
     4.6946   5.2639   5.6119   5.6402   5.9112   7.0952   8.1449   9.8221
    10.4393  12.5391

          k = 0.0000 0.1172-0.4698 (  3922 PWs)   bands (ev):

   -72.8692 -42.2968 -41.5124 -40.9091 -11.4021 -11.0829 -10.2876 -10.0534
     1.2879   1.6419   2.4545   3.0418   3.1653   3.5216   3.8961   4.3834
     4.5900   5.1181   5.4819   5.5462   5.7457   7.0526   8.2446   9.5909
    10.4871  13.8708

          k = 0.0000 0.1184-0.2828 (  3906 PWs)   bands (ev):

   -72.8692 -42.2968 -41.5124 -40.9090 -11.5529 -10.7891 -10.4390 -10.0444
     1.2197   1.7829   2.2270   3.0019   3.1119   3.8365   3.8947   4.4314
     4.5471   4.9532   5.4733   5.5971   5.8333   7.0847   8.1685   9.9114
    10.5309  14.1177

          k =-0.0000-0.2392 0.1914 (  3908 PWs)   bands (ev):

   -72.8692 -42.2967 -41.5124 -40.9090 -11.6649 -10.6825 -10.4565  -9.9934
     1.0266   1.8252   2.3992   2.8352   3.1498   3.6398   3.9662   4.2439
     4.6112   5.0480   5.5144   5.6363   6.1272   7.1461   8.0436  10.2449
    10.5289  13.8541

          k =-0.0000-0.2380 0.3785 (  3906 PWs)   bands (ev):

   -72.8692 -42.2968 -41.5124 -40.9090 -11.5987 -10.8727 -10.3265 -10.0023
     1.3331   1.7635   1.9719   2.9249   3.0740   3.7974   3.9362   4.4334
     4.8006   4.9485   5.4783   5.5866   5.8624   7.1198   8.1774   9.9059
    10.4847  13.4578

          k = 0.0000-0.2416-0.1826 (  3902 PWs)   bands (ev):

   -72.8693 -42.2968 -41.5123 -40.9091 -11.4229 -11.1706 -10.1968 -10.0090
     1.1743   1.7603   2.3289   3.0104   3.0558   3.7155   3.9241   4.1397
     4.5979   5.2473   5.5378   5.6030   5.8119   7.0868   8.2171   9.5575
    10.4407  13.7611

          k = 0.2497-0.0619-0.1385 (  3913 PWs)   bands (ev):

   -72.8663 -42.2937 -41.5066 -40.9486 -11.3359 -10.5841 -10.1735 -10.0081
     1.3889   1.6669   2.1381   2.4263   2.8199   3.0643   3.8347   4.0226
     4.3033   5.0332   5.3604   5.5369   6.1792   6.9813   8.0477   9.7528
    10.1622  13.9699

          k = 0.2497-0.0607 0.0486 (  3893 PWs)   bands (ev):

   -72.8663 -42.2937 -41.5066 -40.9486 -11.4360 -10.4635 -10.2121  -9.9737
     1.4119   1.8085   2.0537   2.4448   2.8574   2.9086   3.7189   3.9912
     4.3229   5.0371   5.4223   5.6073   6.1076   7.0821   7.9739   9.8152
    10.1383  13.6314

          k = 0.2497-0.0642-0.5125 (  3919 PWs)   bands (ev):

   -72.8664 -42.2937 -41.5067 -40.9486 -11.2492 -10.5443 -10.3095 -10.0236
     1.3219   1.6681   2.1982   2.5709   2.7281   3.0313   3.9896   4.0980
     4.4226   5.0013   5.0841   5.5091   6.2278   6.9792   8.0412   9.6982
    10.0803  14.7365

          k = 0.2497-0.0630-0.3255 (  3917 PWs)   bands (ev):

   -72.8664 -42.2938 -41.5067 -40.9486 -11.0707 -10.7489 -10.2620 -10.0622
     1.3173   1.6440   2.1055   2.4585   2.8013   3.3541   3.9139   4.2021
     4.3861   4.9319   5.0577   5.4989   6.2430   6.8968   8.1086   9.8511
     9.9173  15.1088

          k = 0.2497 0.0577-0.2342 (  3917 PWs)   bands (ev):

   -72.8664 -42.2937 -41.5067 -40.9486 -11.2519 -10.5433 -10.3068 -10.0240
     1.3194   1.6692   2.1990   2.5685   2.7279   3.0292   3.9865   4.0960
     4.4278   5.0105   5.0783   5.5112   6.2287   6.9790   8.0421   9.6965
    10.0792  14.7293

          k = 0.2497 0.0589-0.0472 (  3896 PWs)   bands (ev):

   -72.8663 -42.2937 -41.5066 -40.9486 -11.4378 -10.4633 -10.2099  -9.9737
     1.4115   1.8076   2.0553   2.4427   2.8460   2.9183   3.7171   3.9874
     4.3301   5.0297   5.4347   5.6069   6.1039   7.0829   7.9739   9.8139
    10.1395  13.6271

          k = 0.2497 0.0554-0.6082 (  3911 PWs)   bands (ev):

   -72.8663 -42.2937 -41.5066 -40.9486 -11.3355 -10.5826 -10.1752 -10.0087
     1.3872   1.6700   2.1368   2.4252   2.8276   3.0585   3.8350   4.0229
     4.3065   5.0290   5.3574   5.5379   6.1813   6.9831   8.0460   9.7501
    10.1633  13.9780

          k = 0.2497 0.0566-0.4212 (  3914 PWs)   bands (ev):

   -72.8664 -42.2938 -41.5067 -40.9486 -11.0706 -10.7468 -10.2636 -10.0631
     1.3164   1.6440   2.1032   2.4578   2.8035   3.3597   3.9181   4.1989
     4.3823   4.9279   5.0616   5.4999   6.2442   6.8975   8.1065   9.8501
     9.9149  15.1141

          k = 0.2497-0.3011 0.0530 (  3925 PWs)   bands (ev):

   -72.8664 -42.2937 -41.5067 -40.9486 -11.1810 -10.6412 -10.3049 -10.0108
     1.4804   1.8117   2.1140   2.4658   2.7365   3.1368   3.6948   4.0354
     4.4071   4.9836   5.1394   5.5694   6.2118   6.9891   8.0623   9.6977
    10.1608  14.7253

          k = 0.2497-0.2999 0.2400 (  3914 PWs)   bands (ev):

   -72.8664 -42.2937 -41.5067 -40.9486 -11.3136 -10.4840 -10.3468  -9.9752
     1.4016   1.9332   2.2651   2.5284   2.7022   2.9067   3.5413   3.9523
     4.5218   5.0050   5.1482   5.6251   6.1776   7.1014   7.9673   9.7510
    10.1198  14.5131

          k = 0.2497-0.3034-0.3211 (  3912 PWs)   bands (ev):

   -72.8663 -42.2937 -41.5066 -40.9486 -11.2830 -10.6487 -10.1838  -9.9976
     1.6144   1.7850   1.9114   2.5505   2.8329   3.0894   3.5819   3.8951
     4.1911   5.0974   5.4039   5.6073   6.1561   6.9885   8.0632   9.7660
    10.2464  13.8971

          k = 0.2497-0.3023-0.1340 (  3920 PWs)   bands (ev):

   -72.8663 -42.2938 -41.5066 -40.9486 -11.0658 -10.8757 -10.1593 -10.0293
     1.5697   1.7142   1.9375   2.5606   2.8266   3.1186   3.5547   4.1835
     4.2987   4.8929   5.3743   5.5582   6.2102   6.8897   8.1274   9.9415
    10.0147  14.6352

          k = 0.2497-0.1815-0.0427 (  3912 PWs)   bands (ev):

   -72.8663 -42.2937 -41.5066 -40.9486 -11.2806 -10.6498 -10.1859  -9.9974
     1.6120   1.7868   1.9081   2.5588   2.8354   3.0828   3.5832   3.8994
     4.1913   5.1017   5.3900   5.6123   6.1581   6.9866   8.0630   9.7688
    10.2420  13.8983

          k = 0.2497-0.1803 0.1443 (  3920 PWs)   bands (ev):

   -72.8664 -42.2937 -41.5067 -40.9486 -11.3112 -10.4848 -10.3489  -9.9752
     1.4002   1.9327   2.2682   2.5325   2.7081   2.9006   3.5404   3.9536
     4.5187   5.0005   5.1514   5.6246   6.1781   7.1006   7.9673   9.7509
    10.1202  14.5226

          k = 0.2497-0.1838-0.4168 (  3924 PWs)   bands (ev):

   -72.8664 -42.2937 -41.5067 -40.9486 -11.1814 -10.6432 -10.3031 -10.0099
     1.4829   1.8148   2.1127   2.4685   2.7268   3.1415   3.6864   4.0380
     4.4075   4.9878   5.1394   5.5665   6.2089   6.9897   8.0626   9.6994
    10.1650  14.7138

          k = 0.2497-0.1827-0.2298 (  3914 PWs)   bands (ev):

   -72.8663 -42.2938 -41.5066 -40.9486 -11.0655 -10.8779 -10.1575 -10.0290
     1.5714   1.7119   1.9412   2.5636   2.8215   3.1181   3.5485   4.1858
     4.2995   4.8907   5.3818   5.5546   6.2084   6.8886   8.1290   9.9412
    10.0187  14.6327

          k =-0.4994 0.1237 0.2769 (  3922 PWs)   bands (ev):

   -72.8640 -42.2907 -41.5010 -40.9878 -10.7030 -10.3792 -10.2384 -10.0822
     0.6980   1.2366   1.8569   2.2775   2.6034   3.5535   3.8836   4.2995
     4.5423   4.8488   4.8539   5.3082   6.0041   6.8351   7.9432  10.0382
    10.1625  15.3441

          k =-0.4994 0.1249 0.4639 (  3918 PWs)   bands (ev):

   -72.8639 -42.2907 -41.5010 -40.9878 -10.7456 -10.3987 -10.2227 -10.0419
     0.9069   1.2806   1.9628   2.3770   2.6091   3.4653   3.6887   4.2406
     4.4171   4.5862   4.9490   5.1731   6.0008   7.0045   7.9237   9.8508
    10.1214  15.8564

          k =-0.4994 0.1214-0.0971 (  3936 PWs)   bands (ev):

   -72.8639 -42.2907 -41.5010 -40.9878 -10.7829 -10.4189 -10.2062 -10.0071
     1.1022   1.3851   2.1921   2.4353   2.6789   3.0917   3.4305   4.1930
     4.3441   4.5792   4.8810   5.0851   5.9924   7.1334   7.9089   9.6341
    10.1390  16.0140

          k =-0.4994 0.2433 0.1812 (  3933 PWs)   bands (ev):

   -72.8640 -42.2907 -41.5010 -40.9878 -10.7031 -10.3786 -10.2389 -10.0821
     0.7549   1.1505   1.8569   2.2897   2.5654   3.7251   3.8539   4.2459
     4.5209   4.8215   4.8763   5.3020   6.0032   6.8385   7.9357  10.0592
    10.1312  15.6981

          k =-0.4994 0.2445 0.3682 (  3923 PWs)   bands (ev):

   -72.8639 -42.2907 -41.5010 -40.9878 -10.7468 -10.4025 -10.2181 -10.0413
     0.9013   1.3055   1.9667   2.2324   2.8045   3.3687   3.6967   4.2196
     4.4269   4.5898   4.9706   5.1735   5.9989   7.0099   7.9233   9.8335
    10.1385  15.6488

          k =-0.4994 0.2410-0.1929 (  3915 PWs)   bands (ev):

   -72.8639 -42.2907 -41.5010 -40.9878 -10.7851 -10.4162 -10.2094 -10.0040
     1.1197   1.3554   2.1493   2.5218   2.7141   3.0193   3.4756   4.1573
     4.3002   4.5711   4.8663   5.1408   5.9961   7.1405   7.9086   9.6419
    10.1285  15.9934

          k =-0.4994 0.2422-0.0058 (  3927 PWs)   bands (ev):

   -72.8639 -42.2907 -41.5010 -40.9878 -10.7455 -10.3993 -10.2220 -10.0420
     0.8990   1.3074   1.9604   2.2334   2.8013   3.3725   3.6957   4.2321
     4.4310   4.5867   4.9716   5.1700   5.9996   7.0069   7.9209   9.8370
    10.1384  15.6364

          k =-0.4994-0.1155 0.4684 (  3926 PWs)   bands (ev):

   -72.8640 -42.2907 -41.5010 -40.9878 -10.7034 -10.3764 -10.2418 -10.0809
     0.7003   1.2377   1.8536   2.2650   2.5910   3.5551   3.8999   4.3143
     4.5482   4.8438   4.8566   5.3057   6.0046   6.8333   7.9380  10.0338
    10.1645  15.3357

          k =-0.4994-0.1143 0.6554 (  3915 PWs)   bands (ev):

   -72.8639 -42.2907 -41.5010 -40.9878 -10.7473 -10.3997 -10.2216 -10.0400
     0.9122   1.2790   1.9596   2.3726   2.5998   3.4668   3.6891   4.2527
     4.4116   4.5924   4.9491   5.1741   6.0006   7.0054   7.9217   9.8468
    10.1220  15.8730

          k =-0.4994-0.1178 0.0943 (  3928 PWs)   bands (ev):

   -72.8639 -42.2907 -41.5010 -40.9878 -10.7855 -10.4224 -10.2020 -10.0047
     1.1123   1.3827   2.1880   2.4291   2.6730   3.0900   3.4354   4.1868
     4.3478   4.5785   4.8891   5.0852   5.9915   7.1374   7.9087   9.6247
    10.1397  16.0227

     the Fermi energy is     7.0503 ev

!    total energy              =    -520.61840878 Ry
     total all-electron energy =     -3720.871667 Ry
     estimated scf accuracy    <       0.00000001 Ry
     smearing contrib. (-TS)   =      -0.00520378 Ry
     internal energy E=F+TS    =    -520.61320499 Ry

     The total energy is F=E-TS. E is the sum of the following terms:
     one-electron contribution =    -241.20816794 Ry
     hartree contribution      =     145.72025474 Ry
     xc contribution           =     -61.26713814 Ry
     ewald contribution        =    -185.35972325 Ry
     Hubbard energy            =       0.24554850 Ry
     one-center paw contrib.   =    -178.74397891 Ry

     convergence has been achieved in  15 iterations
     force_hub    :     45.56s CPU      5.98s WALL (       3 calls)
     dndtau       :     39.41s CPU      5.24s WALL (    2268 calls)
     dprojdtau    :      6.89s CPU      0.86s WALL (    2268 calls)
     calc_doverla :     20.22s CPU      2.80s WALL (    2268 calls)
     matel_dSdtau :     27.53s CPU      3.74s WALL (    4536 calls)

     Forces acting on atoms (cartesian axes, Ry/au):

     atom    1 type  1   force =     0.00149800   -0.00968295   -0.00763177
     atom    2 type  1   force =    -0.00007158    0.00653785   -0.01412710
     atom    3 type  3   force =    -0.00023891    0.00618114    0.00898445
     atom    4 type  2   force =    -0.00072867   -0.00623893    0.00602836
     atom    5 type  2   force =     0.00053993    0.00331213    0.00125383
     atom    6 type  2   force =     0.00004479   -0.00376106   -0.00281270
     atom    7 type  2   force =    -0.00104356    0.00365183    0.00830493

     Total force =     0.026639     Total SCF correction =     0.000274


     Computing stress (Cartesian axis) and pressure

     stres_hub    :    138.09s CPU     15.39s WALL (       3 calls)
     dprojdepsilo :    110.48s CPU     12.44s WALL (     972 calls)
     dprojdeps1   :     12.59s CPU      1.42s WALL (     972 calls)
     dprojdeps2   :     60.97s CPU      6.99s WALL (     972 calls)
     dprojdeps3   :     36.91s CPU      4.03s WALL (     972 calls)
          total   stress  (Ry/bohr**3)                   (kbar)     P=        8.44
   0.00005221  -0.00000278   0.00000160            7.68       -0.41        0.24
  -0.00000278   0.00010014   0.00003565           -0.41       14.73        5.24
   0.00000160   0.00003565   0.00001971            0.24        5.24        2.90

     Energy error            =      1.5E-03 Ry
     Gradient error          =      1.4E-02 Ry/Bohr
     Cell gradient error     =      1.5E+01 kbar

     number of scf cycles    =   3
     number of bfgs steps    =   2

     enthalpy           old  =    -520.6169468912 Ry
     enthalpy           new  =    -520.6184087751 Ry

     CASE: enthalpy          _new < enthalpy          _old

     new trust radius        =       0.0281597032 bohr
     new conv_thr            =       0.0000001413 Ry

     new unit-cell volume =    486.88626 a.u.^3 (    72.14910 Ang^3 )
     density =      3.85609 g/cm^3

CELL_PARAMETERS (angstrom)
   2.968490845  -0.000266419   0.000199740
   1.505621546   6.155621284  -0.039028878
   2.968352910   3.150254314   3.928505877

ATOMIC_POSITIONS (angstrom)
Mg               3.4439641619        4.7942208869        1.4736823044
Mg               3.4469964590        1.0826723163        0.3578610243
Mn               4.9328407863        2.3161939002        2.5165646250
O                3.4702025271        6.8653296257        1.7513616777
O                4.9302686417        4.2822774986        2.8626037157
O                3.4487555744        2.7987545252        1.3539325853
O                4.9541158242        8.3312710911        3.8304207088



     Writing config-only to output data dir .\out\\qgan.save\ :
     XML data file
     NEW-OLD atomic charge density approx. for the potential
     New effective cutoffs (rho, wfc):  498.24   62.37

     Check: negative core charge=   -0.000002

     Atomic wfc used for Hubbard projectors are orthogonalized


     total cpu time spent up to now is      177.9 secs

     Self-consistent Calculation

     iteration #  1     ecut=    60.00 Ry     beta= 0.70
     Davidson diagonalization with overlap
     ethr =  1.00E-06,  avg # of iterations = 11.2

     =================== HUBBARD OCCUPATIONS ===================
     ------------------------ ATOM    3 ------------------------
     Tr[ns(  3)] =   5.24171
     eigenvalues:
       0.218  0.315  0.401  0.713  0.974
     eigenvectors (columns):
       0.546  0.001  0.203 -0.000 -0.813
      -0.001  0.960  0.001 -0.281  0.000
      -0.798 -0.001  0.422 -0.000 -0.430
       0.255 -0.001  0.884 -0.001  0.392
       0.000  0.281  0.002  0.960  0.000
     occupation matrix ns (before diag.):
       0.725  0.000  0.280 -0.208 -0.000
       0.000  0.346 -0.000  0.000 -0.107
       0.280 -0.000  0.391 -0.060 -0.000
      -0.208  0.000 -0.060  0.477 -0.000
      -0.000 -0.107 -0.000 -0.000  0.682

     Number of occupied Hubbard levels =    5.2417

     total cpu time spent up to now is      183.2 secs

     total energy              =    -520.61894567 Ry
     estimated scf accuracy    <       0.00064892 Ry

     iteration #  2     ecut=    60.00 Ry     beta= 0.70
     Davidson diagonalization with overlap
     ethr =  1.51E-06,  avg # of iterations =  4.4

     total cpu time spent up to now is      186.1 secs

     total energy              =    -520.61848254 Ry
     estimated scf accuracy    <       0.00635727 Ry

     iteration #  3     ecut=    60.00 Ry     beta= 0.70
     Davidson diagonalization with overlap
     ethr =  1.51E-06,  avg # of iterations =  3.3

     total cpu time spent up to now is      188.7 secs

     total energy              =    -520.61911549 Ry
     estimated scf accuracy    <       0.00070025 Ry

     iteration #  4     ecut=    60.00 Ry     beta= 0.70
     Davidson diagonalization with overlap
     ethr =  1.51E-06,  avg # of iterations =  1.9

     total cpu time spent up to now is      190.9 secs

     total energy              =    -520.61923285 Ry
     estimated scf accuracy    <       0.00005353 Ry

     iteration #  5     ecut=    60.00 Ry     beta= 0.70
     Davidson diagonalization with overlap
     ethr =  1.24E-07,  avg # of iterations =  5.9

     total cpu time spent up to now is      193.8 secs

     total energy              =    -520.61928977 Ry
     estimated scf accuracy    <       0.00009754 Ry

     iteration #  6     ecut=    60.00 Ry     beta= 0.70
     Davidson diagonalization with overlap
     ethr =  1.24E-07,  avg # of iterations =  1.1

     total cpu time spent up to now is      195.8 secs

     total energy              =    -520.61928887 Ry
     estimated scf accuracy    <       0.00004283 Ry

     iteration #  7     ecut=    60.00 Ry     beta= 0.70
     Davidson diagonalization with overlap
     ethr =  9.96E-08,  avg # of iterations =  1.4

     total cpu time spent up to now is      197.8 secs

     total energy              =    -520.61928684 Ry
     estimated scf accuracy    <       0.00001576 Ry

     iteration #  8     ecut=    60.00 Ry     beta= 0.70
     Davidson diagonalization with overlap
     ethr =  3.67E-08,  avg # of iterations =  2.0

     total cpu time spent up to now is      200.0 secs

     total energy              =    -520.61928951 Ry
     estimated scf accuracy    <       0.00000091 Ry

     iteration #  9     ecut=    60.00 Ry     beta= 0.70
     Davidson diagonalization with overlap
     c_bands:  1 eigenvalues not converged
     c_bands:  2 eigenvalues not converged
     c_bands:  1 eigenvalues not converged
     c_bands:  3 eigenvalues not converged
     ethr =  2.11E-09,  avg # of iterations = 14.8

     total cpu time spent up to now is      204.8 secs

     total energy              =    -520.61929207 Ry
     estimated scf accuracy    <       0.00000188 Ry

     iteration # 10     ecut=    60.00 Ry     beta= 0.70
     Davidson diagonalization with overlap
     ethr =  2.11E-09,  avg # of iterations =  1.4

     total cpu time spent up to now is      206.8 secs

     total energy              =    -520.61929178 Ry
     estimated scf accuracy    <       0.00000140 Ry

     iteration # 11     ecut=    60.00 Ry     beta= 0.70
     Davidson diagonalization with overlap
     ethr =  2.11E-09,  avg # of iterations =  2.3

     total cpu time spent up to now is      209.0 secs

     total energy              =    -520.61929199 Ry
     estimated scf accuracy    <       0.00000023 Ry

     iteration # 12     ecut=    60.00 Ry     beta= 0.70
     Davidson diagonalization with overlap
     c_bands:  2 eigenvalues not converged
     ethr =  5.45E-10,  avg # of iterations = 10.3

     total cpu time spent up to now is      213.0 secs

     total energy              =    -520.61929247 Ry
     estimated scf accuracy    <       0.00000198 Ry

     iteration # 13     ecut=    60.00 Ry     beta= 0.70
     Davidson diagonalization with overlap
     ethr =  5.45E-10,  avg # of iterations =  4.6

     total cpu time spent up to now is      215.7 secs

     total energy              =    -520.61929187 Ry
     estimated scf accuracy    <       0.00000024 Ry

     iteration # 14     ecut=    60.00 Ry     beta= 0.70
     Davidson diagonalization with overlap
     ethr =  5.45E-10,  avg # of iterations =  4.5

     total cpu time spent up to now is      218.3 secs

     total energy              =    -520.61929298 Ry
     estimated scf accuracy    <       0.00000046 Ry

     iteration # 15     ecut=    60.00 Ry     beta= 0.70
     Davidson diagonalization with overlap
     ethr =  5.45E-10,  avg # of iterations =  2.0

     total cpu time spent up to now is      220.5 secs

     total energy              =    -520.61929259 Ry
     estimated scf accuracy    <       0.00000037 Ry

     iteration # 16     ecut=    60.00 Ry     beta= 0.70
     Davidson diagonalization with overlap
     ethr =  5.45E-10,  avg # of iterations =  1.9

     total cpu time spent up to now is      222.6 secs

     End of self-consistent calculation

     =================== HUBBARD OCCUPATIONS ===================
     ------------------------ ATOM    3 ------------------------
     Tr[ns(  3)] =   5.23260
     eigenvalues:
       0.217  0.315  0.400  0.711  0.974
     eigenvectors (columns):
       0.539 -0.001  0.203  0.001 -0.818
      -0.002 -0.961 -0.000  0.276 -0.000
      -0.802  0.001  0.421 -0.000 -0.424
       0.259 -0.000  0.884  0.001  0.390
       0.001 -0.276  0.001 -0.961 -0.000
     occupation matrix ns (before diag.):
       0.730  0.000  0.278 -0.208 -0.000
       0.000  0.345 -0.000  0.000 -0.105
       0.278 -0.000  0.385 -0.057  0.000
      -0.208  0.000 -0.057  0.475 -0.000
      -0.000 -0.105  0.000 -0.000  0.681

     Number of occupied Hubbard levels =    5.2326

          k = 0.0000 0.0000 0.0000 (  3893 PWs)   bands (ev):

   -72.8812 -42.3070 -41.5281 -40.9197 -11.8907 -10.5791 -10.2505 -10.0148
     0.8081   1.5080   2.2024   2.6786   3.0764   3.8861   4.2011   4.3414
     4.6456   5.4531   5.6174   5.7033   6.1106   7.1023   8.0292  10.0982
    10.3959  11.7527

          k =-0.0000 0.0012 0.1873 (  3895 PWs)   bands (ev):

   -72.8811 -42.3071 -41.5282 -40.9197 -11.6951 -10.7235 -10.3293 -10.0555
     0.9935   1.7954   1.9929   3.0684   3.0780   3.8507   4.0540   4.4547
     4.6672   4.9834   5.5656   5.6193   5.8066   7.0607   8.1307   9.8110
    10.4422  12.8610

          k = 0.0000-0.0024-0.3746 (  3894 PWs)   bands (ev):

   -72.8810 -42.3071 -41.5282 -40.9197 -11.3665 -10.9924 -10.4045 -10.1097
     1.2190   1.8563   2.5459   3.0259   3.0728   3.5028   3.8487   4.5458
     4.5793   4.8546   5.4956   5.5306   5.6588   7.0185   8.2034   9.5844
    10.4888  14.4617

          k = 0.0000 0.1195-0.0959 (  3889 PWs)   bands (ev):

   -72.8811 -42.3070 -41.5282 -40.9197 -11.7895 -10.6069 -10.3780 -10.0024
     1.0301   1.5199   2.1818   2.7866   3.1130   3.9103   4.1453   4.2831
     4.7491   5.0326   5.5116   5.6543   6.1069   7.1249   8.0273  10.1593
    10.4410  12.5400

          k = 0.0000 0.1207 0.0914 (  3904 PWs)   bands (ev):

   -72.8812 -42.3071 -41.5281 -40.9197 -11.7332 -10.8074 -10.2260 -10.0110
     0.9499   1.7939   2.0720   2.8997   3.0420   3.8276   3.8880   4.4583
     4.6854   5.2505   5.6000   5.6084   5.8824   7.0974   8.1275   9.8026
    10.3962  12.5160

          k = 0.0000 0.1171-0.4705 (  3922 PWs)   bands (ev):

   -72.8811 -42.3072 -41.5282 -40.9197 -11.3988 -11.0881 -10.3046 -10.0550
     1.2900   1.6424   2.4495   3.0400   3.1629   3.5143   3.8741   4.3778
     4.5631   5.1129   5.4649   5.5159   5.7124   7.0542   8.2274   9.5704
    10.4430  13.8509

          k = 0.0000 0.1183-0.2832 (  3906 PWs)   bands (ev):

   -72.8811 -42.3071 -41.5282 -40.9197 -11.5495 -10.7940 -10.4574 -10.0448
     1.2189   1.7837   2.2307   2.9923   3.1120   3.8288   3.8715   4.4045
     4.5403   4.9431   5.4606   5.5660   5.8060   7.0863   8.1501   9.8895
    10.4869  14.0943

          k =-0.0000-0.2391 0.1917 (  3908 PWs)   bands (ev):

   -72.8811 -42.3070 -41.5282 -40.9197 -11.6624 -10.6859 -10.4769  -9.9925
     1.0219   1.8367   2.4012   2.8248   3.1524   3.6266   3.9408   4.2172
     4.6066   5.0292   5.5041   5.6045   6.1069   7.1478   8.0221  10.2244
    10.4855  13.8316

          k =-0.0000-0.2379 0.3790 (  3906 PWs)   bands (ev):

   -72.8811 -42.3071 -41.5282 -40.9197 -11.5978 -10.8751 -10.3444 -10.0032
     1.3333   1.7584   1.9790   2.9201   3.0740   3.7925   3.9127   4.4069
     4.7832   4.9415   5.4635   5.5555   5.8367   7.1214   8.1585   9.8860
    10.4411  13.4355

          k =-0.0000-0.2414-0.1829 (  3902 PWs)   bands (ev):

   -72.8812 -42.3071 -41.5282 -40.9197 -11.4236 -11.1719 -10.2134 -10.0107
     1.1753   1.7624   2.3239   3.0089   3.0560   3.7053   3.9016   4.1370
     4.5712   5.2329   5.5076   5.5925   5.7765   7.0883   8.1981   9.5404
    10.3970  13.7461

          k = 0.2491-0.0618-0.1387 (  3913 PWs)   bands (ev):

   -72.8783 -42.3041 -41.5226 -40.9582 -11.3386 -10.5934 -10.1858 -10.0130
     1.3853   1.6602   2.1355   2.4206   2.8186   3.0422   3.8278   4.0102
     4.2932   5.0246   5.3428   5.5245   6.1514   6.9776   8.0347   9.7261
    10.1334  13.9483

          k = 0.2491-0.0606 0.0486 (  3893 PWs)   bands (ev):

   -72.8783 -42.3041 -41.5226 -40.9582 -11.4391 -10.4727 -10.2247  -9.9781
     1.4074   1.8090   2.0454   2.4439   2.8478   2.8968   3.7090   3.9750
     4.3151   5.0220   5.4052   5.6001   6.0795   7.0753   7.9624   9.7880
    10.1090  13.6075

          k = 0.2492-0.0642-0.5133 (  3919 PWs)   bands (ev):

   -72.8784 -42.3041 -41.5227 -40.9582 -11.2499 -10.5545 -10.3242 -10.0272
     1.3144   1.6632   2.1990   2.5718   2.7117   3.0178   3.9800   4.0882
     4.4202   4.9810   5.0689   5.4984   6.1954   6.9769   8.0292   9.6712
    10.0540  14.7147

          k = 0.2491-0.0630-0.3260 (  3917 PWs)   bands (ev):

   -72.8784 -42.3042 -41.5227 -40.9582 -11.0674 -10.7625 -10.2768 -10.0662
     1.3116   1.6333   2.1090   2.4565   2.7775   3.3436   3.9116   4.2000
     4.3799   4.9158   5.0367   5.4860   6.2101   6.8959   8.0969   9.8290
     9.8868  15.0957

          k = 0.2492 0.0577-0.2345 (  3917 PWs)   bands (ev):

   -72.8784 -42.3041 -41.5227 -40.9582 -11.2526 -10.5535 -10.3216 -10.0276
     1.3121   1.6645   2.1999   2.5694   2.7111   3.0156   3.9772   4.0860
     4.4247   4.9901   5.0634   5.5005   6.1963   6.9772   8.0296   9.6700
    10.0534  14.7076

          k = 0.2491 0.0589-0.0472 (  3896 PWs)   bands (ev):

   -72.8783 -42.3041 -41.5226 -40.9582 -11.4408 -10.4726 -10.2225  -9.9781
     1.4069   1.8082   2.0467   2.4420   2.8365   2.9069   3.7072   3.9717
     4.3212   5.0148   5.4169   5.5999   6.0760   7.0759   7.9624   9.7871
    10.1100  13.6033

          k = 0.2492 0.0553-0.6091 (  3911 PWs)   bands (ev):

   -72.8783 -42.3041 -41.5226 -40.9582 -11.3381 -10.5920 -10.1873 -10.0136
     1.3837   1.6630   2.1343   2.4191   2.8268   3.0365   3.8280   4.0111
     4.2963   5.0203   5.3392   5.5257   6.1535   6.9792   8.0334   9.7234
    10.1339  13.9560

          k = 0.2492 0.0565-0.4218 (  3914 PWs)   bands (ev):

   -72.8784 -42.3042 -41.5227 -40.9582 -11.0673 -10.7605 -10.2783 -10.0671
     1.3109   1.6332   2.1069   2.4558   2.7793   3.3486   3.9159   4.1972
     4.3760   4.9117   5.0407   5.4870   6.2113   6.8967   8.0950   9.8278
     9.8847  15.1004

          k = 0.2491-0.3009 0.0531 (  3925 PWs)   bands (ev):

   -72.8784 -42.3041 -41.5227 -40.9582 -11.1817 -10.6493 -10.3216 -10.0144
     1.4686   1.8117   2.1181   2.4577   2.7210   3.1277   3.6905   4.0214
     4.4028   4.9598   5.1286   5.5568   6.1802   6.9874   8.0489   9.6717
    10.1357  14.7109

          k = 0.2491-0.2997 0.2404 (  3914 PWs)   bands (ev):

   -72.8784 -42.3041 -41.5227 -40.9582 -11.3152 -10.4882 -10.3673  -9.9782
     1.3898   1.9414   2.2677   2.5213   2.6865   2.8961   3.5352   3.9347
     4.5169   4.9798   5.1373   5.6163   6.1453   7.0980   7.9545   9.7232
    10.0952  14.4937

          k = 0.2491-0.3033-0.3216 (  3912 PWs)   bands (ev):

   -72.8783 -42.3041 -41.5226 -40.9582 -11.2862 -10.6559 -10.1982 -10.0019
     1.6048   1.7825   1.9090   2.5491   2.8236   3.0742   3.5770   3.8818
     4.1782   5.0880   5.3879   5.5927   6.1292   6.9848   8.0497   9.7400
    10.2176  13.8784

          k = 0.2491-0.3021-0.1343 (  3920 PWs)   bands (ev):

   -72.8783 -42.3042 -41.5226 -40.9582 -11.0654 -10.8864 -10.1736 -10.0337
     1.5650   1.7005   1.9407   2.5613   2.8133   3.0989   3.5444   4.1770
     4.2933   4.8824   5.3587   5.5422   6.1815   6.8887   8.1126   9.9214
     9.9814  14.6241

          k = 0.2491-0.1813-0.0428 (  3912 PWs)   bands (ev):

   -72.8783 -42.3041 -41.5226 -40.9582 -11.2839 -10.6569 -10.2003 -10.0017
     1.6031   1.7844   1.9061   2.5569   2.8259   3.0667   3.5781   3.8854
     4.1789   5.0924   5.3752   5.5973   6.1309   6.9834   8.0491   9.7424
    10.2141  13.8794

          k = 0.2491-0.1802 0.1445 (  3920 PWs)   bands (ev):

   -72.8784 -42.3041 -41.5227 -40.9582 -11.3129 -10.4888 -10.3695  -9.9781
     1.3886   1.9408   2.2713   2.5249   2.6912   2.8904   3.5344   3.9360
     4.5145   4.9754   5.1405   5.6158   6.1456   7.0972   7.9545   9.7229
    10.0956  14.5029

          k = 0.2491-0.1837-0.4174 (  3924 PWs)   bands (ev):

   -72.8784 -42.3041 -41.5227 -40.9582 -11.1821 -10.6512 -10.3199 -10.0136
     1.4706   1.8143   2.1165   2.4605   2.7126   3.1324   3.6830   4.0241
     4.4028   4.9637   5.1284   5.5539   6.1774   6.9874   8.0497   9.6733
    10.1391  14.7006

          k = 0.2491-0.1825-0.2301 (  3914 PWs)   bands (ev):

   -72.8783 -42.3042 -41.5226 -40.9582 -11.0651 -10.8885 -10.1720 -10.0333
     1.5665   1.6986   1.9437   2.5640   2.8092   3.0985   3.5385   4.1794
     4.2937   4.8803   5.3660   5.5389   6.1797   6.8877   8.1142   9.9212
     9.9851  14.6220

          k =-0.4983 0.1236 0.2773 (  3922 PWs)   bands (ev):

   -72.8761 -42.3012 -41.5171 -40.9963 -10.7069 -10.4028 -10.2341 -10.0978
     0.6974   1.2264   1.8508   2.2681   2.5930   3.5370   3.8744   4.2788
     4.5323   4.8474   4.8492   5.3120   5.9806   6.8187   7.9348  10.0161
    10.1346  15.3318

          k =-0.4983 0.1248 0.4647 (  3918 PWs)   bands (ev):

   -72.8760 -42.3012 -41.5171 -40.9963 -10.7503 -10.4199 -10.2206 -10.0572
     0.9073   1.2666   1.9621   2.3698   2.5975   3.4521   3.6800   4.2296
     4.4028   4.5771   4.9419   5.1707   5.9772   6.9904   7.9166   9.8300
    10.0897  15.8510

          k =-0.4982 0.1213-0.0973 (  3936 PWs)   bands (ev):

   -72.8760 -42.3012 -41.5171 -40.9963 -10.7879 -10.4387 -10.2053 -10.0224
     1.0990   1.3733   2.1984   2.4286   2.6686   3.0800   3.4209   4.1831
     4.3366   4.5545   4.8821   5.0723   5.9687   7.1208   7.9034   9.6121
    10.1054  16.0280

          k =-0.4983 0.2432 0.1815 (  3933 PWs)   bands (ev):

   -72.8761 -42.3012 -41.5171 -40.9963 -10.7070 -10.4024 -10.2342 -10.0980
     0.7562   1.1376   1.8521   2.2794   2.5561   3.7107   3.8394   4.2243
     4.5171   4.8167   4.8723   5.3055   5.9798   6.8221   7.9274  10.0365
    10.1039  15.6809

          k =-0.4983 0.2444 0.3688 (  3923 PWs)   bands (ev):

   -72.8760 -42.3012 -41.5171 -40.9963 -10.7513 -10.4234 -10.2163 -10.0567
     0.9005   1.2927   1.9655   2.2245   2.7956   3.3555   3.6858   4.2089
     4.4154   4.5784   4.9636   5.1709   5.9754   6.9959   7.9163   9.8132
    10.1065  15.6391

          k =-0.4982 0.2408-0.1931 (  3915 PWs)   bands (ev):

   -72.8760 -42.3012 -41.5171 -40.9963 -10.7902 -10.4359 -10.2090 -10.0189
     1.1161   1.3443   2.1518   2.5225   2.7020   3.0045   3.4680   4.1508
     4.2885   4.5462   4.8665   5.1288   5.9723   7.1278   7.9032   9.6202
    10.0953  15.9994

          k =-0.4982 0.2420-0.0058 (  3927 PWs)   bands (ev):

   -72.8760 -42.3012 -41.5171 -40.9963 -10.7501 -10.4207 -10.2195 -10.0576
     0.8984   1.2940   1.9599   2.2249   2.7930   3.3589   3.6854   4.2202
     4.4203   4.5748   4.9649   5.1673   5.9760   6.9932   7.9141   9.8163
    10.1062  15.6274

          k =-0.4983-0.1154 0.4691 (  3926 PWs)   bands (ev):

   -72.8761 -42.3012 -41.5171 -40.9963 -10.7073 -10.4005 -10.2367 -10.0968
     0.6995   1.2271   1.8475   2.2568   2.5816   3.5388   3.8889   4.2927
     4.5388   4.8402   4.8538   5.3093   5.9811   6.8174   7.9300  10.0123
    10.1360  15.3231

          k =-0.4983-0.1142 0.6564 (  3915 PWs)   bands (ev):

   -72.8760 -42.3012 -41.5171 -40.9963 -10.7518 -10.4207 -10.2197 -10.0554
     0.9120   1.2651   1.9594   2.3658   2.5890   3.4530   3.6809   4.2401
     4.3984   4.5829   4.9422   5.1714   5.9770   6.9915   7.9148   9.8264
    10.0902  15.8672

          k =-0.4983-0.1178 0.0945 (  3928 PWs)   bands (ev):

   -72.8760 -42.3012 -41.5171 -40.9963 -10.7904 -10.4419 -10.2016 -10.0199
     1.1080   1.3716   2.1944   2.4230   2.6638   3.0782   3.4251   4.1775
     4.3389   4.5549   4.8894   5.0720   5.9678   7.1246   7.9032   9.6037
    10.1062  16.0352

     the Fermi energy is     7.0459 ev

!    total energy              =    -520.61929311 Ry
     total all-electron energy =     -3720.872552 Ry
     estimated scf accuracy    <       0.00000003 Ry
     smearing contrib. (-TS)   =      -0.00518587 Ry
     internal energy E=F+TS    =    -520.61410723 Ry

     The total energy is F=E-TS. E is the sum of the following terms:
     one-electron contribution =    -240.80658075 Ry
     hartree contribution      =     145.49716757 Ry
     xc contribution           =     -61.25930666 Ry
     ewald contribution        =    -185.54797112 Ry
     Hubbard energy            =       0.24547686 Ry
     one-center paw contrib.   =    -178.74289313 Ry

     convergence has been achieved in  16 iterations
     force_hub    :     62.84s CPU      7.89s WALL (       4 calls)
     dndtau       :     54.81s CPU      6.92s WALL (    3024 calls)
     dprojdtau    :      9.45s CPU      1.13s WALL (    3024 calls)
     calc_doverla :     28.55s CPU      3.71s WALL (    3024 calls)
     matel_dSdtau :     38.83s CPU      4.95s WALL (    6048 calls)

     Forces acting on atoms (cartesian axes, Ry/au):

     atom    1 type  1   force =     0.00136573   -0.00541295   -0.00682711
     atom    2 type  1   force =    -0.00010058    0.00593226   -0.00756463
     atom    3 type  3   force =    -0.00020651    0.00751405    0.00428071
     atom    4 type  2   force =    -0.00059098   -0.00599769    0.00397768
     atom    5 type  2   force =     0.00045048    0.00242672   -0.00018263
     atom    6 type  2   force =     0.00003082   -0.00732047   -0.00107541
     atom    7 type  2   force =    -0.00094898    0.00285808    0.00739139

     Total force =     0.020536     Total SCF correction =     0.000136


     Computing stress (Cartesian axis) and pressure

     stres_hub    :    185.84s CPU     20.53s WALL (       4 calls)
     dprojdepsilo :    149.50s CPU     16.57s WALL (    1296 calls)
     dprojdeps1   :     16.83s CPU      1.90s WALL (    1296 calls)
     dprojdeps2   :     84.34s CPU      9.29s WALL (    1296 calls)
     dprojdeps3   :     48.30s CPU      5.37s WALL (    1296 calls)
          total   stress  (Ry/bohr**3)                   (kbar)     P=        4.65
  -0.00000852  -0.00000383   0.00000282           -1.25       -0.56        0.42
  -0.00000383   0.00007733   0.00004189           -0.56       11.38        6.16
   0.00000282   0.00004189   0.00002608            0.42        6.16        3.84

     Energy error            =      8.8E-04 Ry
     Gradient error          =      7.6E-03 Ry/Bohr
     Cell gradient error     =      1.1E+01 kbar

     number of scf cycles    =   4
     number of bfgs steps    =   3

     enthalpy           old  =    -520.6184087751 Ry
     enthalpy           new  =    -520.6192931081 Ry

     CASE: enthalpy          _new < enthalpy          _old

     new trust radius        =       0.0421954244 bohr
     new conv_thr            =       0.0000000756 Ry

     new unit-cell volume =    487.66507 a.u.^3 (    72.26451 Ang^3 )
     density =      3.84993 g/cm^3

CELL_PARAMETERS (angstrom)
   2.972292036  -0.000981297   0.000716304
   1.506020125   6.166209247  -0.032852167
   2.972067618   3.159071269   3.926273618

ATOMIC_POSITIONS (angstrom)
Mg               3.4502103825        4.7884007391        1.4631424315
Mg               3.4510902834        1.0959065605        0.3400345028
Mn               4.9385327662        2.3204657012        2.5236338399
O                3.4719117142        6.8782291562        1.7696298681
O                4.9369991251        4.2940885058        2.8629668567
O                3.4528141146        2.7985171362        1.3543057964
O                4.9572010540        8.3566891306        3.8459998002



     Writing config-only to output data dir .\out\\qgan.save\ :
     XML data file
     NEW-OLD atomic charge density approx. for the potential
     New effective cutoffs (rho, wfc):  497.11   62.24

     Check: negative core charge=   -0.000002

     Atomic wfc used for Hubbard projectors are orthogonalized


     total cpu time spent up to now is      232.6 secs

     Self-consistent Calculation

     iteration #  1     ecut=    60.00 Ry     beta= 0.70
     Davidson diagonalization with overlap
     ethr =  1.00E-06,  avg # of iterations = 11.9

     =================== HUBBARD OCCUPATIONS ===================
     ------------------------ ATOM    3 ------------------------
     Tr[ns(  3)] =   5.24338
     eigenvalues:
       0.220  0.313  0.400  0.715  0.975
     eigenvectors (columns):
       0.540  0.000  0.202  0.001 -0.817
      -0.001  0.962 -0.001  0.273 -0.000
      -0.800 -0.001  0.424 -0.001 -0.424
       0.261  0.001  0.883  0.001  0.390
       0.001  0.273  0.001 -0.962 -0.000
     occupation matrix ns (before diag.):
       0.732  0.000  0.277 -0.209 -0.000
       0.000  0.342 -0.000  0.000 -0.105
       0.277 -0.000  0.388 -0.057  0.000
      -0.209  0.000 -0.057  0.475 -0.000
      -0.000 -0.105  0.000 -0.000  0.685

     Number of occupied Hubbard levels =    5.2434

     total cpu time spent up to now is      238.3 secs

     total energy              =    -520.61966578 Ry
     estimated scf accuracy    <       0.00096623 Ry

     iteration #  2     ecut=    60.00 Ry     beta= 0.70
     Davidson diagonalization with overlap
     ethr =  2.25E-06,  avg # of iterations =  4.3

     total cpu time spent up to now is      241.1 secs

     total energy              =    -520.61901607 Ry
     estimated scf accuracy    <       0.00842432 Ry

     iteration #  3     ecut=    60.00 Ry     beta= 0.70
     Davidson diagonalization with overlap
     ethr =  2.25E-06,  avg # of iterations =  3.6

     total cpu time spent up to now is      243.4 secs

     total energy              =    -520.61987845 Ry
     estimated scf accuracy    <       0.00109728 Ry

     iteration #  4     ecut=    60.00 Ry     beta= 0.70
     Davidson diagonalization with overlap
     ethr =  2.25E-06,  avg # of iterations =  1.9

     total cpu time spent up to now is      245.6 secs

     total energy              =    -520.62007168 Ry
     estimated scf accuracy    <       0.00011986 Ry

     iteration #  5     ecut=    60.00 Ry     beta= 0.70
     Davidson diagonalization with overlap
     ethr =  2.79E-07,  avg # of iterations =  5.1

     total cpu time spent up to now is      248.3 secs

     total energy              =    -520.62014607 Ry
     estimated scf accuracy    <       0.00010145 Ry

     iteration #  6     ecut=    60.00 Ry     beta= 0.70
     Davidson diagonalization with overlap
     ethr =  2.36E-07,  avg # of iterations =  1.1

     total cpu time spent up to now is      250.3 secs

     total energy              =    -520.62014655 Ry
     estimated scf accuracy    <       0.00004161 Ry

     iteration #  7     ecut=    60.00 Ry     beta= 0.70
     Davidson diagonalization with overlap
     ethr =  9.68E-08,  avg # of iterations =  1.9

     total cpu time spent up to now is      252.4 secs

     total energy              =    -520.62014605 Ry
     estimated scf accuracy    <       0.00001348 Ry

     iteration #  8     ecut=    60.00 Ry     beta= 0.70
     Davidson diagonalization with overlap
     ethr =  3.14E-08,  avg # of iterations =  2.5

     total cpu time spent up to now is      254.7 secs

     total energy              =    -520.62014885 Ry
     estimated scf accuracy    <       0.00000092 Ry

     iteration #  9     ecut=    60.00 Ry     beta= 0.70
     Davidson diagonalization with overlap
     c_bands:  1 eigenvalues not converged
     c_bands:  1 eigenvalues not converged
     c_bands:  1 eigenvalues not converged
     c_bands:  2 eigenvalues not converged
     c_bands:  5 eigenvalues not converged
     c_bands:  1 eigenvalues not converged
     c_bands:  5 eigenvalues not converged
     c_bands:  1 eigenvalues not converged
     ethr =  2.14E-09,  avg # of iterations = 15.7

     total cpu time spent up to now is      260.2 secs

     total energy              =    -520.62015233 Ry
     estimated scf accuracy    <       0.00000141 Ry

     iteration # 10     ecut=    60.00 Ry     beta= 0.70
     Davidson diagonalization with overlap
     ethr =  2.14E-09,  avg # of iterations =  1.7

     total cpu time spent up to now is      262.2 secs

     total energy              =    -520.62015219 Ry
     estimated scf accuracy    <       0.00000072 Ry

     iteration # 11     ecut=    60.00 Ry     beta= 0.70
     Davidson diagonalization with overlap
     ethr =  1.67E-09,  avg # of iterations =  6.0

     total cpu time spent up to now is      265.0 secs

     total energy              =    -520.62015267 Ry
     estimated scf accuracy    <       0.00000036 Ry

     iteration # 12     ecut=    60.00 Ry     beta= 0.70
     Davidson diagonalization with overlap
     ethr =  8.40E-10,  avg # of iterations =  1.9

     total cpu time spent up to now is      267.1 secs

     total energy              =    -520.62015214 Ry
     estimated scf accuracy    <       0.00000017 Ry

     iteration # 13     ecut=    60.00 Ry     beta= 0.70
     Davidson diagonalization with overlap
     c_bands:  3 eigenvalues not converged
     ethr =  3.99E-10,  avg # of iterations = 11.9

     total cpu time spent up to now is      271.4 secs

     total energy              =    -520.62015284 Ry
     estimated scf accuracy    <       0.00000096 Ry

     iteration # 14     ecut=    60.00 Ry     beta= 0.70
     Davidson diagonalization with overlap
     ethr =  3.99E-10,  avg # of iterations =  5.6

     total cpu time spent up to now is      274.3 secs

     End of self-consistent calculation

     =================== HUBBARD OCCUPATIONS ===================
     ------------------------ ATOM    3 ------------------------
     Tr[ns(  3)] =   5.23463
     eigenvalues:
       0.218  0.313  0.399  0.713  0.974
     eigenvectors (columns):
      -0.535 -0.000  0.202  0.002 -0.820
       0.002 -0.963 -0.001  0.268 -0.001
       0.803  0.001  0.423 -0.001 -0.420
      -0.262 -0.002  0.883  0.001  0.388
      -0.002 -0.268  0.000 -0.963 -0.001
     occupation matrix ns (before diag.):
       0.734  0.001  0.276 -0.209 -0.000
       0.001  0.342 -0.000 -0.000 -0.103
       0.276 -0.000  0.384 -0.056  0.001
      -0.209 -0.000 -0.056  0.473 -0.001
      -0.000 -0.103  0.001 -0.001  0.684

     Number of occupied Hubbard levels =    5.2346

          k = 0.0000 0.0000 0.0000 (  3893 PWs)   bands (ev):

   -72.8977 -42.3199 -41.5471 -40.9368 -11.8860 -10.5633 -10.2771 -10.0397
     0.8124   1.5062   2.2239   2.6737   3.0656   3.8813   4.1702   4.3317
     4.6364   5.4261   5.5999   5.6546   6.0747   7.0980   8.0035  10.0632
    10.3496  11.7240

          k =-0.0000 0.0010 0.1876 (  3895 PWs)   bands (ev):

   -72.8977 -42.3199 -41.5472 -40.9368 -11.6882 -10.7141 -10.3549 -10.0767
     1.0027   1.7963   1.9920   3.0669   3.0701   3.8445   4.0425   4.4453
     4.6499   4.9571   5.5518   5.5731   5.7671   7.0559   8.1038   9.7757
    10.3943  12.8363

          k = 0.0001-0.0020-0.3752 (  3894 PWs)   bands (ev):

   -72.8976 -42.3200 -41.5472 -40.9368 -11.3509 -10.9939 -10.4303 -10.1281
     1.2429   1.8428   2.5396   3.0182   3.0626   3.4941   3.8417   4.5361
     4.5651   4.8440   5.4741   5.4872   5.6214   7.0130   8.1792   9.5447
    10.4395  14.4374

          k = 0.0001 0.1194-0.0961 (  3889 PWs)   bands (ev):

   -72.8977 -42.3199 -41.5471 -40.9368 -11.7826 -10.5917 -10.4077 -10.0257
     1.0338   1.5221   2.1897   2.7843   3.1024   3.9036   4.1373   4.2757
     4.7244   5.0139   5.4856   5.6061   6.0733   7.1205   7.9990  10.1245
    10.3933  12.5135

          k = 0.0000 0.1204 0.0915 (  3904 PWs)   bands (ev):

   -72.8977 -42.3199 -41.5471 -40.9368 -11.7304 -10.7952 -10.2525 -10.0299
     0.9500   1.7983   2.0883   2.8918   3.0316   3.8172   3.8827   4.4491
     4.6646   5.2240   5.5600   5.5802   5.8444   7.0925   8.1006   9.7720
    10.3496  12.4888

          k = 0.0002 0.1174-0.4713 (  3922 PWs)   bands (ev):

   -72.8976 -42.3200 -41.5472 -40.9368 -11.3955 -11.0773 -10.3325 -10.0711
     1.2984   1.6469   2.4480   3.0298   3.1528   3.5119   3.8679   4.3572
     4.5540   5.0968   5.4407   5.4700   5.6742   7.0487   8.2007   9.5383
    10.3949  13.8333

          k = 0.0001 0.1184-0.2837 (  3906 PWs)   bands (ev):

   -72.8976 -42.3199 -41.5472 -40.9368 -11.5377 -10.7914 -10.4816 -10.0654
     1.2271   1.7882   2.2313   2.9774   3.1016   3.8266   3.8637   4.3972
     4.5258   4.9225   5.4388   5.5201   5.7699   7.0813   8.1226   9.8537
    10.4377  14.0736

          k =-0.0001-0.2388 0.1922 (  3908 PWs)   bands (ev):

   -72.8976 -42.3199 -41.5472 -40.9368 -11.6512 -10.6853 -10.4971 -10.0146
     1.0199   1.8548   2.4011   2.8197   3.1419   3.6102   3.9305   4.2137
     4.5970   5.0056   5.4784   5.5567   6.0746   7.1433   7.9919  10.1900
    10.4365  13.8130

          k =-0.0002-0.2378 0.3798 (  3906 PWs)   bands (ev):

   -72.8976 -42.3199 -41.5472 -40.9368 -11.5926 -10.8644 -10.3718 -10.0219
     1.3343   1.7570   1.9936   2.9126   3.0636   3.7931   3.9060   4.3998
     4.7551   4.9204   5.4375   5.5076   5.8036   7.1163   8.1305   9.8547
    10.3933  13.4104

          k =-0.0000-0.2408-0.1829 (  3902 PWs)   bands (ev):

   -72.8977 -42.3200 -41.5471 -40.9368 -11.4324 -11.1504 -10.2412 -10.0254
     1.1643   1.7938   2.3243   2.9989   3.0423   3.7015   3.8961   4.1194
     4.5628   5.2095   5.4595   5.5698   5.7314   7.0828   8.1700   9.5152
    10.3502  13.7357

          k = 0.2488-0.0615-0.1389 (  3913 PWs)   bands (ev):

   -72.8949 -42.3170 -41.5417 -40.9746 -11.3323 -10.5892 -10.2069 -10.0372
     1.3911   1.6598   2.1334   2.4242   2.8050   3.0196   3.8135   4.0071
     4.2755   5.0201   5.3101   5.5015   6.1177   6.9616   8.0122   9.6875
    10.0952  13.9292

          k = 0.2488-0.0605 0.0487 (  3893 PWs)   bands (ev):

   -72.8949 -42.3170 -41.5417 -40.9746 -11.4329 -10.4646 -10.2477 -10.0043
     1.4114   1.8140   2.0382   2.4494   2.8278   2.8856   3.7025   3.9528
     4.3061   5.0116   5.3839   5.5707   6.0457   7.0561   7.9416   9.7509
    10.0691  13.5841

          k = 0.2489-0.0635-0.5140 (  3919 PWs)   bands (ev):

   -72.8949 -42.3170 -41.5418 -40.9746 -11.2377 -10.5563 -10.3445 -10.0520
     1.3147   1.6676   2.2029   2.5651   2.6878   3.0082   3.9709   4.0901
     4.4098   4.9450   5.0566   5.4739   6.1579   6.9591   8.0074   9.6354
    10.0189  14.6978

          k = 0.2489-0.0625-0.3264 (  3917 PWs)   bands (ev):

   -72.8949 -42.3171 -41.5418 -40.9746 -11.0470 -10.7734 -10.2984 -10.0886
     1.3172   1.6349   2.1065   2.4499   2.7440   3.3524   3.9022   4.1924
     4.3760   4.8878   5.0111   5.4622   6.1735   6.8797   8.0746   9.7938
     9.8517  15.0908

          k = 0.2489 0.0579-0.2350 (  3917 PWs)   bands (ev):

   -72.8949 -42.3170 -41.5418 -40.9746 -11.2401 -10.5552 -10.3423 -10.0523
     1.3130   1.6692   2.2039   2.5624   2.6877   3.0057   3.9687   4.0875
     4.4132   4.9523   5.0527   5.4759   6.1587   6.9601   8.0070   9.6351
    10.0183  14.6913

          k = 0.2488 0.0589-0.0474 (  3896 PWs)   bands (ev):

   -72.8949 -42.3170 -41.5417 -40.9746 -11.4344 -10.4645 -10.2458 -10.0043
     1.4108   1.8134   2.0391   2.4478   2.8205   2.8926   3.7011   3.9499
     4.3105   5.0055   5.3935   5.5708   6.0428   7.0567   7.9416   9.7504
    10.0700  13.5803

          k = 0.2490 0.0559-0.6101 (  3911 PWs)   bands (ev):

   -72.8949 -42.3170 -41.5417 -40.9746 -11.3317 -10.5880 -10.2081 -10.0378
     1.3896   1.6618   2.1325   2.4221   2.8125   3.0151   3.8138   4.0086
     4.2784   5.0158   5.3068   5.5028   6.1196   6.9626   8.0116   9.6847
    10.0954  13.9359

          k = 0.2489 0.0569-0.4226 (  3914 PWs)   bands (ev):

   -72.8949 -42.3171 -41.5418 -40.9746 -11.0467 -10.7719 -10.2995 -10.0894
     1.3168   1.6346   2.1052   2.4492   2.7451   3.3565   3.9062   4.1905
     4.3717   4.8845   5.0148   5.4632   6.1746   6.8805   8.0730   9.7930
     9.8497  15.0945

          k = 0.2487-0.3003 0.0534 (  3925 PWs)   bands (ev):

   -72.8949 -42.3170 -41.5418 -40.9746 -11.1685 -10.6518 -10.3437 -10.0375
     1.4644   1.8224   2.1187   2.4563   2.6941   3.1207   3.6869   4.0137
     4.3913   4.9200   5.1173   5.5326   6.1446   6.9706   8.0252   9.6405
    10.1004  14.6998

          k = 0.2487-0.2993 0.2410 (  3914 PWs)   bands (ev):

   -72.8949 -42.3170 -41.5417 -40.9746 -11.3040 -10.4816 -10.3949 -10.0031
     1.3835   1.9600   2.2655   2.5098   2.6720   2.8912   3.5336   3.9155
     4.5048   4.9371   5.1370   5.5902   6.1088   7.0793   7.9318   9.6905
    10.0599  14.4783

          k = 0.2488-0.3023-0.3218 (  3912 PWs)   bands (ev):

   -72.8949 -42.3170 -41.5417 -40.9746 -11.2805 -10.6502 -10.2215 -10.0245
     1.6025   1.7798   1.9179   2.5590   2.8029   3.0599   3.5599   3.8773
     4.1560   5.0761   5.3617   5.5675   6.0982   6.9684   8.0266   9.7050
    10.1787  13.8601

          k = 0.2487-0.3013-0.1342 (  3920 PWs)   bands (ev):

   -72.8949 -42.3171 -41.5417 -40.9746 -11.0585 -10.8841 -10.1972 -10.0534
     1.5623   1.6990   1.9557   2.5614   2.7856   3.0926   3.5227   4.1668
     4.2824   4.8690   5.3283   5.5233   6.1486   6.8745   8.0886   9.8882
     9.9420  14.6194

          k = 0.2488-0.1809-0.0427 (  3912 PWs)   bands (ev):

   -72.8949 -42.3170 -41.5417 -40.9746 -11.2785 -10.6511 -10.2233 -10.0242
     1.6021   1.7811   1.9155   2.5663   2.8038   3.0524   3.5605   3.8796
     4.1574   5.0804   5.3513   5.5713   6.0996   6.9674   8.0256   9.7073
    10.1759  13.8608

          k = 0.2487-0.1799 0.1448 (  3920 PWs)   bands (ev):

   -72.8949 -42.3170 -41.5418 -40.9747 -11.3019 -10.4823 -10.3968 -10.0031
     1.3827   1.9592   2.2693   2.5134   2.6739   2.8872   3.5324   3.9168
     4.5033   4.9333   5.1400   5.5896   6.1090   7.0785   7.9319   9.6900
    10.0602  14.4863

          k = 0.2489-0.1829-0.4179 (  3924 PWs)   bands (ev):

   -72.8949 -42.3170 -41.5418 -40.9746 -11.1690 -10.6533 -10.3423 -10.0368
     1.4655   1.8243   2.1169   2.4592   2.6879   3.1253   3.6805   4.0169
     4.3909   4.9234   5.1165   5.5299   6.1421   6.9699   8.0265   9.6413
    10.1034  14.6915

          k = 0.2488-0.1819-0.2303 (  3914 PWs)   bands (ev):

   -72.8949 -42.3171 -41.5417 -40.9746 -11.0585 -10.8856 -10.1959 -10.0529
     1.5635   1.6973   1.9582   2.5637   2.7832   3.0918   3.5176   4.1689
     4.2826   4.8669   5.3346   5.5206   6.1469   6.8735   8.0899   9.8879
     9.9453  14.6179

          k =-0.4976 0.1230 0.2777 (  3922 PWs)   bands (ev):

   -72.8927 -42.3141 -41.5363 -41.0121 -10.6692 -10.4350 -10.2491 -10.1274
     0.6994   1.2127   1.8471   2.2698   2.5887   3.5199   3.8775   4.2579
     4.5220   4.8118   4.8240   5.3151   5.9558   6.7907   7.9150   9.9825
    10.0973  15.3155

          k =-0.4977 0.1240 0.4653 (  3918 PWs)   bands (ev):

   -72.8927 -42.3141 -41.5363 -41.0121 -10.7163 -10.4500 -10.2368 -10.0841
     0.9098   1.2459   1.9678   2.3684   2.5971   3.4393   3.6770   4.2146
     4.3842   4.5457   4.9236   5.1623   5.9522   6.9639   7.8986   9.7930
    10.0556  15.8446

          k =-0.4976 0.1210-0.0974 (  3936 PWs)   bands (ev):

   -72.8926 -42.3141 -41.5363 -41.0121 -10.7559 -10.4683 -10.2217 -10.0478
     1.0920   1.3599   2.2107   2.4286   2.6626   3.0824   3.4076   4.1591
     4.3261   4.5128   4.8817   5.0525   5.9432   7.0951   7.8869   9.5753
    10.0700  16.0566

          k =-0.4976 0.2424 0.1816 (  3933 PWs)   bands (ev):

   -72.8927 -42.3141 -41.5363 -41.0121 -10.6692 -10.4347 -10.2488 -10.1279
     0.7613   1.1200   1.8519   2.2710   2.5622   3.6839   3.8487   4.1984
     4.5130   4.7870   4.8408   5.3080   5.9550   6.7941   7.9080  10.0005
    10.0689  15.6536

          k =-0.4976 0.2434 0.3692 (  3923 PWs)   bands (ev):

   -72.8927 -42.3141 -41.5363 -41.0121 -10.7170 -10.4536 -10.2325 -10.0839
     0.8994   1.2772   1.9681   2.2237   2.7974   3.3463   3.6781   4.1927
     4.3986   4.5453   4.9441   5.1641   5.9503   6.9695   7.8983   9.7780
    10.0710  15.6288

          k =-0.4975 0.2404-0.1936 (  3915 PWs)   bands (ev):

   -72.8926 -42.3141 -41.5363 -41.0121 -10.7586 -10.4644 -10.2263 -10.0441
     1.1092   1.3292   2.1684   2.5210   2.6974   2.9978   3.4642   4.1349
     4.2647   4.5056   4.8655   5.1102   5.9467   7.1019   7.8868   9.5836
    10.0609  16.0156

          k =-0.4975 0.2414-0.0060 (  3927 PWs)   bands (ev):

   -72.8927 -42.3141 -41.5363 -41.0121 -10.7159 -10.4513 -10.2350 -10.0849
     0.8977   1.2781   1.9633   2.2234   2.7957   3.3489   3.6785   4.2014
     4.4039   4.5422   4.9454   5.1608   5.9510   6.9674   7.8965   9.7802
    10.0708  15.6187

          k =-0.4978-0.1158 0.4700 (  3926 PWs)   bands (ev):

   -72.8927 -42.3141 -41.5363 -41.0121 -10.6696 -10.4331 -10.2508 -10.1269
     0.7011   1.2131   1.8439   2.2603   2.5792   3.5215   3.8901   4.2688
     4.5289   4.8076   4.8258   5.3125   5.9563   6.7899   7.9111   9.9792
    10.0984  15.3071

          k =-0.4978-0.1148 0.6575 (  3915 PWs)   bands (ev):

   -72.8927 -42.3141 -41.5363 -41.0121 -10.7178 -10.4506 -10.2360 -10.0824
     0.9136   1.2446   1.9661   2.3650   2.5895   3.4396   3.6782   4.2221
     4.3812   4.5510   4.9240   5.1626   5.9520   6.9653   7.8971   9.7900
    10.0560  15.8588

          k =-0.4977-0.1178 0.0948 (  3928 PWs)   bands (ev):

   -72.8926 -42.3141 -41.5363 -41.0121 -10.7582 -10.4708 -10.2187 -10.0454
     1.0989   1.3592   2.2082   2.4237   2.6584   3.0811   3.4103   4.1549
     4.3272   4.5136   4.8876   5.0519   5.9424   7.0986   7.8867   9.5688
    10.0707  16.0604

     the Fermi energy is     7.0295 ev

!    total energy              =    -520.62015321 Ry
     total all-electron energy =     -3720.873412 Ry
     estimated scf accuracy    <       0.00000004 Ry
     smearing contrib. (-TS)   =      -0.00511019 Ry
     internal energy E=F+TS    =    -520.61504302 Ry

     The total energy is F=E-TS. E is the sum of the following terms:
     one-electron contribution =    -240.28174419 Ry
     hartree contribution      =     145.20939936 Ry
     xc contribution           =     -61.24922271 Ry
     ewald contribution        =    -185.79689356 Ry
     Hubbard energy            =       0.24507190 Ry
     one-center paw contrib.   =    -178.74165382 Ry

     convergence has been achieved in  14 iterations
     force_hub    :     79.58s CPU      9.81s WALL (       5 calls)
     dndtau       :     69.72s CPU      8.61s WALL (    3780 calls)
     dprojdtau    :     11.00s CPU      1.40s WALL (    3780 calls)
     calc_doverla :     36.00s CPU      4.60s WALL (    3780 calls)
     matel_dSdtau :     50.45s CPU      6.17s WALL (    7560 calls)

     Forces acting on atoms (cartesian axes, Ry/au):

     atom    1 type  1   force =     0.00115672    0.00011517   -0.00540313
     atom    2 type  1   force =    -0.00006679    0.00346784    0.00153163
     atom    3 type  3   force =    -0.00023077    0.00207786   -0.00212671
     atom    4 type  2   force =    -0.00045229   -0.00113686    0.00330070
     atom    5 type  2   force =     0.00031428    0.00038796   -0.00319395
     atom    6 type  2   force =     0.00007422   -0.00696174    0.00088771
     atom    7 type  2   force =    -0.00079538    0.00204977    0.00500375

     Total force =     0.012482     Total SCF correction =     0.000347


     Computing stress (Cartesian axis) and pressure

     stres_hub    :    228.14s CPU     25.68s WALL (       5 calls)
     dprojdepsilo :    183.97s CPU     20.73s WALL (    1620 calls)
     dprojdeps1   :     20.34s CPU      2.38s WALL (    1620 calls)
     dprojdeps2   :    104.94s CPU     11.62s WALL (    1620 calls)
     dprojdeps3   :     58.66s CPU      6.72s WALL (    1620 calls)
          total   stress  (Ry/bohr**3)                   (kbar)     P=        0.63
  -0.00004744  -0.00000430   0.00000388           -6.98       -0.63        0.57
  -0.00000430   0.00002603   0.00002444           -0.63        3.83        3.60
   0.00000388   0.00002444   0.00003425            0.57        3.60        5.04

     Energy error            =      8.6E-04 Ry
     Gradient error          =      7.0E-03 Ry/Bohr
     Cell gradient error     =      7.0E+00 kbar

     number of scf cycles    =   5
     number of bfgs steps    =   4

     enthalpy           old  =    -520.6192931081 Ry
     enthalpy           new  =    -520.6201532072 Ry

     CASE: enthalpy          _new < enthalpy          _old

     new trust radius        =       0.0262393882 bohr
     new conv_thr            =       0.0000000696 Ry

     new unit-cell volume =    488.13474 a.u.^3 (    72.33411 Ang^3 )
     density =      3.84623 g/cm^3

CELL_PARAMETERS (angstrom)
   2.970722952  -0.001744840   0.001344290
   1.503587519   6.174211932  -0.026259094
   2.970514478   3.166704171   3.930617195

ATOMIC_POSITIONS (angstrom)
Mg               3.4497376853        4.7873428503        1.4579656102
Mg               3.4489508112        1.1053980418        0.3326242826
Mn               4.9354165747        2.3240524401        2.5299363021
O                3.4675907351        6.8888466075        1.7877807545
O                4.9346215593        4.3030768472        2.8662398021
O                3.4506621684        2.7959955411        1.3582378200
O                4.9516452789        8.3766524350        3.8658773437



     Writing config-only to output data dir .\out\\qgan.save\ :
     XML data file
     NEW-OLD atomic charge density approx. for the potential
     New effective cutoffs (rho, wfc):  496.10   62.08

     Check: negative core charge=   -0.000002

     Atomic wfc used for Hubbard projectors are orthogonalized


     total cpu time spent up to now is      284.2 secs

     Self-consistent Calculation

     iteration #  1     ecut=    60.00 Ry     beta= 0.70
     Davidson diagonalization with overlap
     ethr =  1.00E-06,  avg # of iterations =  9.6

     =================== HUBBARD OCCUPATIONS ===================
     ------------------------ ATOM    3 ------------------------
     Tr[ns(  3)] =   5.23833
     eigenvalues:
       0.220  0.311  0.399  0.714  0.975
     eigenvectors (columns):
       0.536  0.000  0.202  0.002  0.820
      -0.001 -0.964 -0.002  0.266  0.001
      -0.802  0.000  0.424 -0.001  0.420
       0.263 -0.002  0.883  0.001 -0.389
       0.002 -0.266 -0.000 -0.964  0.001
     occupation matrix ns (before diag.):
       0.735  0.001  0.276 -0.209 -0.000
       0.001  0.340 -0.000 -0.000 -0.103
       0.276 -0.000  0.385 -0.056  0.001
      -0.209 -0.000 -0.056  0.474 -0.000
      -0.000 -0.103  0.001 -0.000  0.686

     Number of occupied Hubbard levels =    5.2383

     total cpu time spent up to now is      289.3 secs

     total energy              =    -520.62031135 Ry
     estimated scf accuracy    <       0.00033389 Ry

     iteration #  2     ecut=    60.00 Ry     beta= 0.70
     Davidson diagonalization with overlap
     ethr =  7.76E-07,  avg # of iterations =  4.4

     total cpu time spent up to now is      292.0 secs

     total energy              =    -520.62013580 Ry
     estimated scf accuracy    <       0.00228095 Ry

     iteration #  3     ecut=    60.00 Ry     beta= 0.70
     Davidson diagonalization with overlap
     ethr =  7.76E-07,  avg # of iterations =  2.8

     total cpu time spent up to now is      294.3 secs

     total energy              =    -520.62038494 Ry
     estimated scf accuracy    <       0.00034867 Ry

     iteration #  4     ecut=    60.00 Ry     beta= 0.70
     Davidson diagonalization with overlap
     ethr =  7.76E-07,  avg # of iterations =  1.9

     total cpu time spent up to now is      296.5 secs

     total energy              =    -520.62044972 Ry
     estimated scf accuracy    <       0.00007482 Ry

     iteration #  5     ecut=    60.00 Ry     beta= 0.70
     Davidson diagonalization with overlap
     ethr =  1.74E-07,  avg # of iterations =  4.7

     total cpu time spent up to now is      299.3 secs

     total energy              =    -520.62047885 Ry
     estimated scf accuracy    <       0.00003023 Ry

     iteration #  6     ecut=    60.00 Ry     beta= 0.70
     Davidson diagonalization with overlap
     ethr =  7.03E-08,  avg # of iterations =  1.6

     total cpu time spent up to now is      301.5 secs

     total energy              =    -520.62047961 Ry
     estimated scf accuracy    <       0.00001175 Ry

     iteration #  7     ecut=    60.00 Ry     beta= 0.70
     Davidson diagonalization with overlap
     ethr =  2.73E-08,  avg # of iterations =  2.0

     total cpu time spent up to now is      303.7 secs

     total energy              =    -520.62047984 Ry
     estimated scf accuracy    <       0.00000387 Ry

     iteration #  8     ecut=    60.00 Ry     beta= 0.70
     Davidson diagonalization with overlap
     ethr =  9.00E-09,  avg # of iterations =  3.0

     total cpu time spent up to now is      306.0 secs

     total energy              =    -520.62048056 Ry
     estimated scf accuracy    <       0.00000039 Ry

     iteration #  9     ecut=    60.00 Ry     beta= 0.70
     Davidson diagonalization with overlap
     c_bands:  1 eigenvalues not converged
     c_bands:  1 eigenvalues not converged
     c_bands:  2 eigenvalues not converged
     c_bands:  1 eigenvalues not converged
     c_bands:  3 eigenvalues not converged
     c_bands:  1 eigenvalues not converged
     c_bands:  1 eigenvalues not converged
     c_bands:  1 eigenvalues not converged
     ethr =  9.04E-10,  avg # of iterations = 16.8

     total cpu time spent up to now is      311.4 secs

     total energy              =    -520.62048171 Ry
     estimated scf accuracy    <       0.00000021 Ry

     iteration # 10     ecut=    60.00 Ry     beta= 0.70
     Davidson diagonalization with overlap
     ethr =  4.83E-10,  avg # of iterations =  3.1

     total cpu time spent up to now is      313.7 secs

     total energy              =    -520.62048172 Ry
     estimated scf accuracy    <       0.00000010 Ry

     iteration # 11     ecut=    60.00 Ry     beta= 0.70
     Davidson diagonalization with overlap
     c_bands:  1 eigenvalues not converged
     ethr =  2.25E-10,  avg # of iterations =  9.2

     total cpu time spent up to now is      316.9 secs

     End of self-consistent calculation

     =================== HUBBARD OCCUPATIONS ===================
     ------------------------ ATOM    3 ------------------------
     Tr[ns(  3)] =   5.23563
     eigenvalues:
       0.219  0.312  0.399  0.714  0.975
     eigenvectors (columns):
       0.536 -0.000  0.202  0.002 -0.820
      -0.001  0.964 -0.002  0.266 -0.001
      -0.803 -0.000  0.423 -0.002 -0.420
       0.262  0.002  0.883  0.000  0.389
       0.002  0.266 -0.001 -0.964 -0.001
     occupation matrix ns (before diag.):
       0.734  0.001  0.276 -0.209 -0.000
       0.001  0.340 -0.000 -0.000 -0.103
       0.276 -0.000  0.385 -0.056  0.001
      -0.209 -0.000 -0.056  0.473 -0.000
      -0.000 -0.103  0.001 -0.000  0.685

     Number of occupied Hubbard levels =    5.2356

          k = 0.0000 0.0000 0.0000 (  3893 PWs)   bands (ev):

   -72.9057 -42.3278 -41.5552 -40.9450 -11.8858 -10.5577 -10.2887 -10.0616
     0.8131   1.4999   2.2293   2.6772   3.0601   3.8877   4.1373   4.3354
     4.6261   5.4065   5.5959   5.6355   6.0519   7.1012   7.9884  10.0464
    10.3261  11.7068

          k =-0.0001 0.0008 0.1876 (  3895 PWs)   bands (ev):

   -72.9057 -42.3279 -41.5552 -40.9450 -11.6882 -10.7117 -10.3638 -10.0974
     1.0059   1.7931   1.9855   3.0619   3.0697   3.8499   4.0306   4.4484
     4.6245   4.9438   5.5454   5.5567   5.7477   7.0586   8.0882   9.7587
    10.3695  12.8211

          k = 0.0002-0.0016-0.3751 (  3894 PWs)   bands (ev):

   -72.9056 -42.3280 -41.5553 -40.9450 -11.3526 -10.9912 -10.4380 -10.1481
     1.2570   1.8287   2.5237   3.0102   3.0577   3.4895   3.8456   4.5379
     4.5522   4.8335   5.4594   5.4737   5.6079   7.0153   8.1659   9.5240
    10.4136  14.4242

          k = 0.0001 0.1193-0.0962 (  3889 PWs)   bands (ev):

   -72.9057 -42.3278 -41.5552 -40.9450 -11.7815 -10.5867 -10.4212 -10.0457
     1.0340   1.5172   2.1893   2.7860   3.0963   3.9090   4.1230   4.2810
     4.7005   5.0060   5.4692   5.5874   6.0543   7.1240   7.9823  10.1082
    10.3684  12.4976

          k = 0.0000 0.1202 0.0913 (  3904 PWs)   bands (ev):

   -72.9057 -42.3279 -41.5552 -40.9450 -11.7318 -10.7929 -10.2606 -10.0499
     0.9475   1.7977   2.0910   2.8877   3.0266   3.8081   3.8886   4.4526
     4.6410   5.2053   5.5415   5.5694   5.8242   7.0952   8.0852   9.7581
    10.3263  12.4721

          k = 0.0003 0.1177-0.4713 (  3922 PWs)   bands (ev):

   -72.9057 -42.3280 -41.5553 -40.9450 -11.4012 -11.0714 -10.3405 -10.0898
     1.3009   1.6469   2.4351   3.0252   3.1471   3.5080   3.8725   4.3417
     4.5572   5.0803   5.4247   5.4541   5.6579   7.0510   8.1856   9.5233
    10.3704  13.8243

          k = 0.0002 0.1185-0.2838 (  3906 PWs)   bands (ev):

   -72.9056 -42.3279 -41.5553 -40.9450 -11.5362 -10.7917 -10.4907 -10.0843
     1.2295   1.7857   2.2243   2.9680   3.0959   3.8234   3.8681   4.4018
     4.5105   4.9044   5.4252   5.5040   5.7540   7.0844   8.1071   9.8363
    10.4115  14.0619

          k =-0.0002-0.2387 0.1925 (  3908 PWs)   bands (ev):

   -72.9057 -42.3278 -41.5553 -40.9450 -11.6486 -10.6873 -10.5062 -10.0332
     1.0159   1.8569   2.3964   2.8195   3.1352   3.5996   3.9341   4.2214
     4.5817   4.9886   5.4613   5.5385   6.0578   7.1471   7.9743  10.1746
    10.4101  13.8037

          k =-0.0003-0.2379 0.3800 (  3906 PWs)   bands (ev):

   -72.9057 -42.3279 -41.5552 -40.9450 -11.5935 -10.8627 -10.3813 -10.0401
     1.3319   1.7524   1.9952   2.9076   3.0583   3.7914   3.9110   4.4047
     4.7394   4.8943   5.4203   5.4895   5.7889   7.1193   8.1146   9.8403
    10.3686  13.3957

          k =-0.0001-0.2403-0.1826 (  3902 PWs)   bands (ev):

   -72.9057 -42.3280 -41.5552 -40.9450 -11.4418 -11.1419 -10.2483 -10.0440
     1.1553   1.8102   2.3146   2.9946   3.0316   3.7005   3.9014   4.1051
     4.5667   5.1875   5.4412   5.5528   5.7102   7.0852   8.1540   9.5047
    10.3271  13.7313

          k = 0.2490-0.0612-0.1388 (  3913 PWs)   bands (ev):

   -72.9029 -42.3250 -41.5498 -40.9829 -11.3313 -10.5876 -10.2176 -10.0530
     1.3948   1.6610   2.1274   2.4250   2.7870   3.0115   3.8106   4.0022
     4.2669   5.0124   5.2893   5.4898   6.1003   6.9548   8.0015   9.6686
    10.0772  13.9167

          k = 0.2489-0.0604 0.0487 (  3893 PWs)   bands (ev):

   -72.9029 -42.3249 -41.5498 -40.9829 -11.4310 -10.4611 -10.2611 -10.0204
     1.4138   1.8108   2.0377   2.4450   2.8188   2.8736   3.6995   3.9498
     4.2946   5.0096   5.3708   5.5493   6.0279   7.0471   7.9313   9.7331
    10.0512  13.5690

          k = 0.2491-0.0629-0.5139 (  3919 PWs)   bands (ev):

   -72.9030 -42.3250 -41.5498 -40.9829 -11.2349 -10.5568 -10.3531 -10.0695
     1.3156   1.6707   2.1979   2.5566   2.6733   3.0045   3.9697   4.0970
     4.3953   4.9210   5.0495   5.4589   6.1402   6.9494   7.9968   9.6191
    10.0039  14.6874

          k = 0.2491-0.0620-0.3264 (  3917 PWs)   bands (ev):

   -72.9030 -42.3250 -41.5498 -40.9829 -11.0454 -10.7735 -10.3060 -10.1062
     1.3228   1.6378   2.0963   2.4425   2.7289   3.3539   3.8987   4.1880
     4.3720   4.8643   4.9982   5.4468   6.1583   6.8710   8.0638   9.7779
     9.8359  15.0864

          k = 0.2491 0.0581-0.2351 (  3917 PWs)   bands (ev):

   -72.9030 -42.3250 -41.5498 -40.9829 -11.2370 -10.5559 -10.3513 -10.0697
     1.3146   1.6721   2.1987   2.5536   2.6739   3.0022   3.9673   4.0952
     4.3981   4.9264   5.0465   5.4606   6.1410   6.9508   7.9962   9.6196
    10.0030  14.6819

          k = 0.2490 0.0589-0.0475 (  3896 PWs)   bands (ev):

   -72.9029 -42.3249 -41.5498 -40.9829 -11.4323 -10.4610 -10.2595 -10.0205
     1.4133   1.8102   2.0382   2.4438   2.8136   2.8791   3.6984   3.9475
     4.2980   5.0044   5.3782   5.5496   6.0256   7.0478   7.9313   9.7329
    10.0518  13.5658

          k = 0.2493 0.0565-0.6102 (  3911 PWs)   bands (ev):

   -72.9029 -42.3250 -41.5498 -40.9829 -11.3308 -10.5866 -10.2187 -10.0536
     1.3933   1.6625   2.1269   2.4228   2.7933   3.0082   3.8111   4.0038
     4.2692   5.0086   5.2867   5.4911   6.1018   6.9555   8.0013   9.6657
    10.0776  13.9223

          k = 0.2492 0.0573-0.4226 (  3914 PWs)   bands (ev):

   -72.9030 -42.3250 -41.5498 -40.9829 -11.0450 -10.7723 -10.3070 -10.1069
     1.3226   1.6373   2.0956   2.4418   2.7296   3.3573   3.9020   4.1867
     4.3679   4.8620   5.0010   5.4478   6.1593   6.8718   8.0625   9.7775
     9.8338  15.0894

          k = 0.2487-0.2999 0.0536 (  3925 PWs)   bands (ev):

   -72.9030 -42.3250 -41.5498 -40.9829 -11.1655 -10.6538 -10.3519 -10.0541
     1.4628   1.8290   2.1107   2.4558   2.6769   3.1163   3.6879   4.0132
     4.3782   4.8958   5.1081   5.5173   6.1294   6.9611   8.0131   9.6283
    10.0850  14.6922

          k = 0.2487-0.2991 0.2412 (  3914 PWs)   bands (ev):

   -72.9030 -42.3249 -41.5498 -40.9829 -11.3001 -10.4813 -10.4061 -10.0202
     1.3800   1.9650   2.2591   2.5019   2.6628   2.8891   3.5361   3.9132
     4.4877   4.9103   5.1389   5.5736   6.0916   7.0685   7.9199   9.6767
    10.0460  14.4693

          k = 0.2489-0.3015-0.3215 (  3912 PWs)   bands (ev):

   -72.9029 -42.3250 -41.5498 -40.9829 -11.2798 -10.6490 -10.2317 -10.0401
     1.6016   1.7764   1.9239   2.5573   2.7892   3.0519   3.5529   3.8747
     4.1422   5.0667   5.3436   5.5535   6.0839   6.9609   8.0150   9.6892
    10.1606  13.8475

          k = 0.2488-0.3007-0.1339 (  3920 PWs)   bands (ev):

   -72.9029 -42.3250 -41.5498 -40.9829 -11.0633 -10.8786 -10.2060 -10.0688
     1.5606   1.7027   1.9612   2.5579   2.7637   3.0927   3.5087   4.1599
     4.2771   4.8525   5.3083   5.5166   6.1334   6.8680   8.0773   9.8736
     9.9225  14.6132

          k = 0.2489-0.1806-0.0426 (  3912 PWs)   bands (ev):

   -72.9029 -42.3250 -41.5498 -40.9829 -11.2781 -10.6498 -10.2332 -10.0399
     1.6018   1.7775   1.9220   2.5638   2.7890   3.0453   3.5531   3.8763
     4.1440   5.0703   5.3355   5.5563   6.0853   6.9602   8.0139   9.6914
    10.1581  13.8480

          k = 0.2488-0.1797 0.1450 (  3920 PWs)   bands (ev):

   -72.9030 -42.3249 -41.5498 -40.9829 -11.2983 -10.4821 -10.4075 -10.0202
     1.3793   1.9642   2.2623   2.5058   2.6630   2.8863   3.5348   3.9143
     4.4866   4.9074   5.1419   5.5728   6.0917   7.0677   7.9199   9.6762
    10.0463  14.4760

          k = 0.2490-0.1822-0.4177 (  3924 PWs)   bands (ev):

   -72.9030 -42.3250 -41.5498 -40.9829 -11.1659 -10.6550 -10.3508 -10.0535
     1.4633   1.8304   2.1091   2.4585   2.6722   3.1204   3.6826   4.0163
     4.3777   4.8983   5.1072   5.5151   6.1271   6.9602   8.0145   9.6284
    10.0880  14.6856

          k = 0.2489-0.1814-0.2302 (  3914 PWs)   bands (ev):

   -72.9029 -42.3250 -41.5498 -40.9829 -11.0634 -10.8798 -10.2049 -10.0684
     1.5617   1.7013   1.9631   2.5599   2.7623   3.0918   3.5045   4.1616
     4.2774   4.8506   5.3134   5.5145   6.1318   6.8672   8.0783   9.8732
     9.9255  14.6121

          k =-0.4979 0.1224 0.2777 (  3922 PWs)   bands (ev):

   -72.9007 -42.3221 -41.5444 -41.0204 -10.6519 -10.4458 -10.2723 -10.1310
     0.7004   1.2060   1.8406   2.2689   2.5866   3.5037   3.8785   4.2486
     4.5218   4.7775   4.8035   5.3166   5.9489   6.7769   7.9063   9.9672
    10.0793  15.2994

          k =-0.4980 0.1233 0.4652 (  3918 PWs)   bands (ev):

   -72.9007 -42.3221 -41.5444 -41.0205 -10.6996 -10.4612 -10.2592 -10.0876
     0.9090   1.2334   1.9657   2.3681   2.5957   3.4266   3.6734   4.2090
     4.3786   4.5208   4.9084   5.1550   5.9451   6.9493   7.8908   9.7761
    10.0408  15.8326

          k =-0.4978 0.1208-0.0974 (  3936 PWs)   bands (ev):

   -72.9006 -42.3220 -41.5444 -41.0205 -10.7391 -10.4802 -10.2435 -10.0512
     1.0832   1.3495   2.2083   2.4300   2.6585   3.0848   3.3997   4.1422
     4.3257   4.4896   4.8795   5.0348   5.9358   7.0800   7.8797   9.5595
    10.0550  16.0657

          k =-0.4978 0.2418 0.1814 (  3933 PWs)   bands (ev):

   -72.9007 -42.3221 -41.5444 -41.0204 -10.6520 -10.4457 -10.2720 -10.1314
     0.7641   1.1108   1.8471   2.2658   2.5661   3.6620   3.8518   4.1855
     4.5145   4.7602   4.8153   5.3095   5.9478   6.7803   7.8997   9.9829
    10.0531  15.6266

          k =-0.4979 0.2426 0.3690 (  3923 PWs)   bands (ev):

   -72.9007 -42.3221 -41.5444 -41.0205 -10.7000 -10.4648 -10.2552 -10.0874
     0.8962   1.2682   1.9631   2.2244   2.7968   3.3381   3.6721   4.1867
     4.3918   4.5208   4.9260   5.1593   5.9432   6.9549   7.8904   9.7627
    10.0550  15.6181

          k =-0.4977 0.2401-0.1937 (  3915 PWs)   bands (ev):

   -72.9006 -42.3220 -41.5444 -41.0205 -10.7418 -10.4755 -10.2484 -10.0479
     1.1002   1.3176   2.1715   2.5202   2.6945   2.9917   3.4641   4.1210
     4.2575   4.4831   4.8623   5.0946   5.9396   7.0863   7.8796   9.5679
    10.0465  16.0190

          k =-0.4977 0.2410-0.0061 (  3927 PWs)   bands (ev):

   -72.9007 -42.3221 -41.5444 -41.0205 -10.6990 -10.4629 -10.2572 -10.0883
     0.8950   1.2688   1.9589   2.2239   2.7956   3.3399   3.6729   4.1934
     4.3965   4.5185   4.9270   5.1564   5.9438   6.9532   7.8890   9.7641
    10.0550  15.6095

          k =-0.4982-0.1162 0.4701 (  3926 PWs)   bands (ev):

   -72.9007 -42.3221 -41.5444 -41.0204 -10.6523 -10.4442 -10.2738 -10.1306
     0.7018   1.2061   1.8377   2.2612   2.5788   3.5052   3.8891   4.2567
     4.5283   4.7745   4.8046   5.3143   5.9493   6.7765   7.9032   9.9640
    10.0805  15.2919

          k =-0.4983-0.1154 0.6577 (  3915 PWs)   bands (ev):

   -72.9007 -42.3221 -41.5444 -41.0205 -10.7008 -10.4617 -10.2586 -10.0862
     0.9122   1.2323   1.9646   2.3652   2.5892   3.4268   3.6749   4.2140
     4.3765   4.5257   4.9088   5.1552   5.9449   6.9507   7.8895   9.7736
    10.0411  15.8439

          k =-0.4980-0.1179 0.0950 (  3928 PWs)   bands (ev):

   -72.9006 -42.3220 -41.5444 -41.0205 -10.7410 -10.4823 -10.2411 -10.0491
     1.0886   1.3492   2.2068   2.4258   2.6550   3.0840   3.4014   4.1390
     4.3263   4.4901   4.8844   5.0343   5.9351   7.0830   7.8794   9.5545
    10.0554  16.0675

     the Fermi energy is     7.0219 ev

!    total energy              =    -520.62048180 Ry
     total all-electron energy =     -3720.873740 Ry
     estimated scf accuracy    <          6.9E-09 Ry
     smearing contrib. (-TS)   =      -0.00503355 Ry
     internal energy E=F+TS    =    -520.61544825 Ry

     The total energy is F=E-TS. E is the sum of the following terms:
     one-electron contribution =    -240.18084897 Ry
     hartree contribution      =     145.14271192 Ry
     xc contribution           =     -61.24436317 Ry
     ewald contribution        =    -185.83685286 Ry
     Hubbard energy            =       0.24478296 Ry
     one-center paw contrib.   =    -178.74087813 Ry

     convergence has been achieved in  11 iterations
     force_hub    :     93.58s CPU     11.71s WALL (       6 calls)
     dndtau       :     82.08s CPU     10.28s WALL (    4536 calls)
     dprojdtau    :     12.34s CPU      1.68s WALL (    4536 calls)
     calc_doverla :     42.80s CPU      5.49s WALL (    4536 calls)
     matel_dSdtau :     60.39s CPU      7.36s WALL (    9072 calls)

     Forces acting on atoms (cartesian axes, Ry/au):

     atom    1 type  1   force =     0.00095938    0.00207195   -0.00367260
     atom    2 type  1   force =    -0.00002164    0.00078868    0.00438704
     atom    3 type  3   force =    -0.00029270   -0.00078484   -0.00287570
     atom    4 type  2   force =    -0.00040053    0.00109582    0.00261391
     atom    5 type  2   force =     0.00024931   -0.00102451   -0.00438168
     atom    6 type  2   force =     0.00014252   -0.00385185    0.00143465
     atom    7 type  2   force =    -0.00063635    0.00170476    0.00249439

     Total force =     0.010124     Total SCF correction =     0.000083


     Computing stress (Cartesian axis) and pressure

     stres_hub    :    273.00s CPU     30.96s WALL (       6 calls)
     dprojdepsilo :    220.00s CPU     25.01s WALL (    1944 calls)
     dprojdeps1   :     25.77s CPU      2.86s WALL (    1944 calls)
     dprojdeps2   :    123.19s CPU     14.01s WALL (    1944 calls)
     dprojdeps3   :     71.00s CPU      8.13s WALL (    1944 calls)
          total   stress  (Ry/bohr**3)                   (kbar)     P=       -2.17
  -0.00005440  -0.00000368   0.00000371           -8.00       -0.54        0.55
  -0.00000368  -0.00000720   0.00001160           -0.54       -1.06        1.71
   0.00000371   0.00001160   0.00001745            0.55        1.71        2.57

     Energy error            =      3.3E-04 Ry
     Gradient error          =      4.4E-03 Ry/Bohr
     Cell gradient error     =      8.0E+00 kbar

     number of scf cycles    =   6
     number of bfgs steps    =   5

     enthalpy           old  =    -520.6201532072 Ry
     enthalpy           new  =    -520.6204817958 Ry

     CASE: enthalpy          _new < enthalpy          _old

     new trust radius        =       0.0191706939 bohr
     new conv_thr            =       0.0000000329 Ry

     new unit-cell volume =    487.93821 a.u.^3 (    72.30498 Ang^3 )
     density =      3.84778 g/cm^3

CELL_PARAMETERS (angstrom)
   2.965586101  -0.002539335   0.002057665
   1.499277564   6.178357068  -0.019810919
   2.965480352   3.172179164   3.936776535

ATOMIC_POSITIONS (angstrom)
Mg               3.4448823015        4.7874588540        1.4552656527
Mg               3.4426934714        1.1111430180        0.3313599437
Mn               4.9263813265        2.3258761386        2.5352931224
O                3.4592038656        6.8955412306        1.8045322257
O                4.9262450352        4.3080450730        2.8689943772
O                3.4444477002        2.7923341932        1.3634588082
O                4.9403351207        8.3901334426        3.8852319749



     Writing config-only to output data dir .\out\\qgan.save\ :
     XML data file
     NEW-OLD atomic charge density approx. for the potential
     New effective cutoffs (rho, wfc):  494.87   61.90

     Check: negative core charge=   -0.000002

     Atomic wfc used for Hubbard projectors are orthogonalized


     total cpu time spent up to now is      326.9 secs

     Self-consistent Calculation

     iteration #  1     ecut=    60.00 Ry     beta= 0.70
     Davidson diagonalization with overlap
     ethr =  1.00E-06,  avg # of iterations = 10.4

     =================== HUBBARD OCCUPATIONS ===================
     ------------------------ ATOM    3 ------------------------
     Tr[ns(  3)] =   5.23991
     eigenvalues:
       0.220  0.311  0.399  0.714  0.976
     eigenvectors (columns):
       0.537  0.001 -0.203  0.002 -0.819
      -0.001 -0.965  0.002  0.264 -0.001
      -0.803  0.000 -0.423 -0.002 -0.421
       0.261 -0.003 -0.883  0.000  0.389
       0.002 -0.264  0.001 -0.965 -0.001
     occupation matrix ns (before diag.):
       0.734  0.001  0.276 -0.209 -0.000
       0.001  0.339  0.000 -0.000 -0.103
       0.276  0.000  0.386 -0.057  0.001
      -0.209 -0.000 -0.057  0.474 -0.000
      -0.000 -0.103  0.001 -0.000  0.686

     Number of occupied Hubbard levels =    5.2399

     total cpu time spent up to now is      332.1 secs

     total energy              =    -520.62056928 Ry
     estimated scf accuracy    <       0.00018776 Ry

     iteration #  2     ecut=    60.00 Ry     beta= 0.70
     Davidson diagonalization with overlap
     ethr =  4.37E-07,  avg # of iterations =  4.1

     total cpu time spent up to now is      334.8 secs

     total energy              =    -520.62043778 Ry
     estimated scf accuracy    <       0.00166432 Ry

     iteration #  3     ecut=    60.00 Ry     beta= 0.70
     Davidson diagonalization with overlap
     ethr =  4.37E-07,  avg # of iterations =  2.7

     total cpu time spent up to now is      337.0 secs

     total energy              =    -520.62060258 Ry
     estimated scf accuracy    <       0.00023005 Ry

     iteration #  4     ecut=    60.00 Ry     beta= 0.70
     Davidson diagonalization with overlap
     ethr =  4.37E-07,  avg # of iterations =  2.0

     total cpu time spent up to now is      339.1 secs

     total energy              =    -520.62064661 Ry
     estimated scf accuracy    <       0.00003478 Ry

     iteration #  5     ecut=    60.00 Ry     beta= 0.70
     Davidson diagonalization with overlap
     ethr =  8.09E-08,  avg # of iterations =  4.5

     total cpu time spent up to now is      341.8 secs

     total energy              =    -520.62066199 Ry
     estimated scf accuracy    <       0.00001794 Ry

     iteration #  6     ecut=    60.00 Ry     beta= 0.70
     Davidson diagonalization with overlap
     ethr =  4.17E-08,  avg # of iterations =  1.3

     total cpu time spent up to now is      343.8 secs

     total energy              =    -520.62066224 Ry
     estimated scf accuracy    <       0.00000720 Ry

     iteration #  7     ecut=    60.00 Ry     beta= 0.70
     Davidson diagonalization with overlap
     ethr =  1.67E-08,  avg # of iterations =  2.0

     total cpu time spent up to now is      345.9 secs

     total energy              =    -520.62066228 Ry
     estimated scf accuracy    <       0.00000213 Ry

     iteration #  8     ecut=    60.00 Ry     beta= 0.70
     Davidson diagonalization with overlap
     ethr =  4.94E-09,  avg # of iterations =  3.7

     total cpu time spent up to now is      348.3 secs

     total energy              =    -520.62066289 Ry
     estimated scf accuracy    <       0.00000007 Ry

     iteration #  9     ecut=    60.00 Ry     beta= 0.70
     Davidson diagonalization with overlap
     c_bands:  3 eigenvalues not converged
     c_bands:  4 eigenvalues not converged
     c_bands:  2 eigenvalues not converged
     c_bands:  5 eigenvalues not converged
     c_bands:  5 eigenvalues not converged
     c_bands:  4 eigenvalues not converged
     c_bands:  1 eigenvalues not converged
     c_bands:  3 eigenvalues not converged
     c_bands:  5 eigenvalues not converged
     c_bands:  5 eigenvalues not converged
     c_bands:  1 eigenvalues not converged
     c_bands:  3 eigenvalues not converged
     c_bands:  1 eigenvalues not converged
     c_bands:  5 eigenvalues not converged
     c_bands:  4 eigenvalues not converged
     ethr =  1.61E-10,  avg # of iterations = 20.5

     total cpu time spent up to now is      355.8 secs

     total energy              =    -520.62066342 Ry
     estimated scf accuracy    <       0.00000023 Ry

     iteration # 10     ecut=    60.00 Ry     beta= 0.70
     Davidson diagonalization with overlap
     ethr =  1.61E-10,  avg # of iterations =  3.2

     total cpu time spent up to now is      358.0 secs

     total energy              =    -520.62066342 Ry
     estimated scf accuracy    <       0.00000012 Ry

     iteration # 11     ecut=    60.00 Ry     beta= 0.70
     Davidson diagonalization with overlap
     ethr =  1.61E-10,  avg # of iterations =  5.0

     total cpu time spent up to now is      360.8 secs

     total energy              =    -520.62066349 Ry
     estimated scf accuracy    <       0.00000005 Ry

     iteration # 12     ecut=    60.00 Ry     beta= 0.70
     Davidson diagonalization with overlap
     ethr =  1.08E-10,  avg # of iterations =  1.5

     total cpu time spent up to now is      362.8 secs

     total energy              =    -520.62066345 Ry
     estimated scf accuracy    <       0.00000004 Ry

     iteration # 13     ecut=    60.00 Ry     beta= 0.70
     Davidson diagonalization with overlap
     ethr =  8.28E-11,  avg # of iterations =  3.0

     total cpu time spent up to now is      365.3 secs

     End of self-consistent calculation

     =================== HUBBARD OCCUPATIONS ===================
     ------------------------ ATOM    3 ------------------------
     Tr[ns(  3)] =   5.23660
     eigenvalues:
       0.219  0.311  0.398  0.714  0.975
     eigenvectors (columns):
       0.538  0.001 -0.204  0.002 -0.818
      -0.001 -0.964  0.002  0.265 -0.002
      -0.802  0.000 -0.422 -0.002 -0.423
       0.259 -0.003 -0.883 -0.000  0.391
       0.002 -0.265  0.001 -0.964 -0.001
     occupation matrix ns (before diag.):
       0.733  0.001  0.277 -0.209 -0.000
       0.001  0.340  0.000 -0.001 -0.103
       0.277  0.000  0.386 -0.058  0.001
      -0.209 -0.001 -0.058  0.474 -0.000
      -0.000 -0.103  0.001 -0.000  0.686

     Number of occupied Hubbard levels =    5.2366

          k = 0.0000 0.0000 0.0000 (  3893 PWs)   bands (ev):

   -72.8963 -42.3211 -41.5446 -40.9351 -11.8818 -10.5515 -10.2858 -10.0654
     0.8177   1.4990   2.2335   2.6917   3.0653   3.9090   4.1153   4.3534
     4.6247   5.4054   5.6101   5.6476   6.0510   7.1234   7.9938  10.0575
    10.3313  11.7156

          k =-0.0001 0.0006 0.1874 (  3895 PWs)   bands (ev):

   -72.8963 -42.3212 -41.5447 -40.9351 -11.6853 -10.7068 -10.3569 -10.1024
     1.0118   1.7949   1.9840   3.0673   3.0774   3.8706   4.0270   4.4655
     4.6078   4.9481   5.5568   5.5713   5.7523   7.0806   8.0937   9.7692
    10.3737  12.8307

          k = 0.0003-0.0013-0.3749 (  3894 PWs)   bands (ev):

   -72.8962 -42.3212 -41.5447 -40.9351 -11.3546 -10.9821 -10.4287 -10.1546
     1.2700   1.8234   2.5138   3.0116   3.0634   3.4940   3.8650   4.5452
     4.5574   4.8353   5.4644   5.4909   5.6176   7.0370   8.1738   9.5310
    10.4169  14.4354

          k = 0.0002 0.1193-0.0963 (  3889 PWs)   bands (ev):

   -72.8963 -42.3211 -41.5447 -40.9351 -11.7773 -10.5801 -10.4199 -10.0484
     1.0386   1.5166   2.1921   2.7959   3.1008   3.9302   4.1157   4.2999
     4.6901   5.0129   5.4727   5.5998   6.0572   7.1467   7.9866  10.1201
    10.3723  12.5068

          k = 0.0000 0.1200 0.0911 (  3904 PWs)   bands (ev):

   -72.8963 -42.3212 -41.5446 -40.9351 -11.7291 -10.7891 -10.2517 -10.0556
     0.9498   1.7995   2.0962   2.8937   3.0325   3.8074   3.9096   4.4701
     4.6281   5.2058   5.5542   5.5763   5.8261   7.1172   8.0906   9.7709
    10.3319  12.4810

          k = 0.0004 0.1181-0.4712 (  3922 PWs)   bands (ev):

   -72.8962 -42.3212 -41.5447 -40.9351 -11.4031 -11.0634 -10.3305 -10.0959
     1.3062   1.6505   2.4260   3.0313   3.1541   3.5109   3.8923   4.3392
     4.5740   5.0766   5.4272   5.4693   5.6651   7.0729   8.1916   9.5351
    10.3750  13.8401

          k = 0.0003 0.1187-0.2837 (  3906 PWs)   bands (ev):

   -72.8962 -42.3212 -41.5447 -40.9351 -11.5333 -10.7868 -10.4855 -10.0876
     1.2347   1.7880   2.2215   2.9696   3.1006   3.8288   3.8885   4.4198
     4.5048   4.9006   5.4303   5.5189   5.7613   7.1068   8.1129   9.8465
    10.4145  14.0741

          k =-0.0003-0.2387 0.1926 (  3908 PWs)   bands (ev):

   -72.8962 -42.3211 -41.5447 -40.9351 -11.6440 -10.6810 -10.5059 -10.0350
     1.0176   1.8592   2.3974   2.8272   3.1389   3.6014   3.9552   4.2412
     4.5747   4.9879   5.4632   5.5512   6.0622   7.1703   7.9778  10.1873
    10.4127  13.8176

          k =-0.0005-0.2381 0.3800 (  3906 PWs)   bands (ev):

   -72.8962 -42.3212 -41.5447 -40.9351 -11.5907 -10.8592 -10.3743 -10.0436
     1.3342   1.7527   1.9987   2.9115   3.0636   3.7975   3.9316   4.4230
     4.7396   4.8817   5.4212   5.5026   5.7962   7.1418   8.1197   9.8529
    10.3729  13.4063

          k =-0.0001-0.2400-0.1823 (  3902 PWs)   bands (ev):

   -72.8963 -42.3212 -41.5446 -40.9351 -11.4438 -11.1345 -10.2369 -10.0508
     1.1537   1.8229   2.3086   3.0010   3.0339   3.7086   3.9215   4.1039
     4.5843   5.1802   5.4541   5.5524   5.7138   7.1072   8.1592   9.5198
    10.3331  13.7504

          k = 0.2494-0.0610-0.1388 (  3913 PWs)   bands (ev):

   -72.8934 -42.3182 -41.5391 -40.9737 -11.3258 -10.5813 -10.2158 -10.0491
     1.4031   1.6702   2.1270   2.4312   2.7782   3.0168   3.8243   4.0055
     4.2743   5.0130   5.2875   5.4987   6.1053   6.9686   8.0118   9.6775
    10.0874  13.9265

          k = 0.2493-0.0603 0.0487 (  3893 PWs)   bands (ev):

   -72.8934 -42.3181 -41.5391 -40.9737 -11.4245 -10.4539 -10.2619 -10.0159
     1.4215   1.8120   2.0461   2.4445   2.8234   2.8684   3.7068   3.9687
     4.2923   5.0210   5.3724   5.5497   6.0325   7.0592   7.9413   9.7429
    10.0622  13.5773

          k = 0.2497-0.0622-0.5136 (  3919 PWs)   bands (ev):

   -72.8935 -42.3182 -41.5392 -40.9737 -11.2297 -10.5504 -10.3486 -10.0680
     1.3229   1.6799   2.1966   2.5557   2.6728   3.0100   3.9842   4.1145
     4.3900   4.9151   5.0542   5.4646   6.1465   6.9603   8.0071   9.6301
    10.0170  14.6991

          k = 0.2495-0.0616-0.3262 (  3917 PWs)   bands (ev):

   -72.8935 -42.3182 -41.5392 -40.9737 -11.0444 -10.7635 -10.2992 -10.1063
     1.3341   1.6471   2.0915   2.4439   2.7308   3.3581   3.9087   4.1971
     4.3791   4.8553   5.0002   5.4513   6.1672   6.8828   8.0742   9.7900
     9.8469  15.0980

          k = 0.2496 0.0584-0.2350 (  3917 PWs)   bands (ev):

   -72.8935 -42.3182 -41.5392 -40.9737 -11.2313 -10.5498 -10.3472 -10.0682
     1.3224   1.6810   2.1972   2.5530   2.6735   3.0082   3.9816   4.1136
     4.3923   4.9188   5.0519   5.4659   6.1473   6.9619   8.0064   9.6314
    10.0154  14.6946

          k = 0.2495 0.0590-0.0476 (  3896 PWs)   bands (ev):

   -72.8934 -42.3181 -41.5391 -40.9737 -11.4255 -10.4538 -10.2607 -10.0159
     1.4212   1.8115   2.0464   2.4435   2.8191   2.8731   3.7060   3.9669
     4.2950   5.0169   5.3776   5.5503   6.0308   7.0599   7.9413   9.7428
    10.0626  13.5748

          k = 0.2498 0.0571-0.6099 (  3911 PWs)   bands (ev):

   -72.8934 -42.3182 -41.5391 -40.9737 -11.3255 -10.5805 -10.2167 -10.0494
     1.4017   1.6713   2.1266   2.4291   2.7832   3.0143   3.8250   4.0070
     4.2758   5.0101   5.2856   5.4999   6.1063   6.9689   8.0118   9.6745
    10.0882  13.9310

          k = 0.2497 0.0577-0.4225 (  3914 PWs)   bands (ev):

   -72.8935 -42.3182 -41.5392 -40.9737 -11.0441 -10.7626 -10.3000 -10.1068
     1.3340   1.6466   2.0912   2.4432   2.7312   3.3609   3.9113   4.1962
     4.3755   4.8540   5.0021   5.4522   6.1681   6.8834   8.0732   9.7902
     9.8447  15.1004

          k = 0.2491-0.2997 0.0538 (  3925 PWs)   bands (ev):

   -72.8935 -42.3182 -41.5392 -40.9737 -11.1600 -10.6489 -10.3462 -10.0526
     1.4689   1.8403   2.1070   2.4632   2.6734   3.1203   3.7006   4.0257
     4.3763   4.8903   5.1113   5.5218   6.1382   6.9719   8.0220   9.6430
    10.0977  14.7044

          k = 0.2490-0.2990 0.2413 (  3914 PWs)   bands (ev):

   -72.8934 -42.3181 -41.5392 -40.9737 -11.2929 -10.4759 -10.4034 -10.0181
     1.3845   1.9710   2.2588   2.5058   2.6632   2.8944   3.5489   3.9300
     4.4799   4.9034   5.1516   5.5780   6.0984   7.0780   7.9284   9.6895
    10.0610  14.4826

          k = 0.2493-0.3009-0.3210 (  3912 PWs)   bands (ev):

   -72.8934 -42.3182 -41.5391 -40.9737 -11.2742 -10.6439 -10.2280 -10.0370
     1.6082   1.7799   1.9343   2.5583   2.7885   3.0536   3.5618   3.8821
     4.1448   5.0697   5.3417   5.5599   6.0922   6.9738   8.0241   9.7007
    10.1712  13.8564

          k = 0.2492-0.3003-0.1336 (  3920 PWs)   bands (ev):

   -72.8934 -42.3182 -41.5391 -40.9737 -11.0635 -10.8685 -10.2002 -10.0669
     1.5670   1.7137   1.9685   2.5611   2.7561   3.1010   3.5095   4.1668
     4.2850   4.8456   5.3067   5.5289   6.1408   6.8818   8.0872   9.8868
     9.9306  14.6222

          k = 0.2492-0.1803-0.0425 (  3912 PWs)   bands (ev):

   -72.8934 -42.3182 -41.5391 -40.9737 -11.2729 -10.6445 -10.2290 -10.0369
     1.6086   1.7808   1.9328   2.5637   2.7876   3.0484   3.5616   3.8831
     4.1466   5.0725   5.3357   5.5618   6.0935   6.9733   8.0231   9.7030
    10.1687  13.8568

          k = 0.2491-0.1797 0.1450 (  3920 PWs)   bands (ev):

   -72.8934 -42.3181 -41.5392 -40.9737 -11.2916 -10.4765 -10.4045 -10.0181
     1.3839   1.9703   2.2613   2.5095   2.6626   2.8924   3.5475   3.9309
     4.4789   4.9015   5.1542   5.5773   6.0985   7.0772   7.9284   9.6890
    10.0612  14.4879

          k = 0.2495-0.1816-0.4173 (  3924 PWs)   bands (ev):

   -72.8935 -42.3182 -41.5392 -40.9737 -11.1604 -10.6498 -10.3453 -10.0521
     1.4688   1.8414   2.1057   2.4656   2.6700   3.1237   3.6963   4.0286
     4.3759   4.8921   5.1107   5.5202   6.1362   6.9709   8.0233   9.6424
    10.1008  14.6995

          k = 0.2494-0.1810-0.2299 (  3914 PWs)   bands (ev):

   -72.8934 -42.3182 -41.5391 -40.9737 -11.0636 -10.8694 -10.1993 -10.0667
     1.5678   1.7125   1.9699   2.5630   2.7551   3.1002   3.5062   4.1681
     4.2853   4.8439   5.3105   5.5272   6.1394   6.8811   8.0881   9.8860
     9.9335  14.6213

          k =-0.4988 0.1219 0.2775 (  3922 PWs)   bands (ev):

   -72.8911 -42.3152 -41.5336 -41.0119 -10.6393 -10.4399 -10.2854 -10.1103
     0.7077   1.2091   1.8401   2.2737   2.5929   3.4967   3.8859   4.2544
     4.5359   4.7608   4.8006   5.3273   5.9648   6.7860   7.9180   9.9798
    10.0896  15.3010

          k =-0.4990 0.1226 0.4649 (  3918 PWs)   bands (ev):

   -72.8911 -42.3152 -41.5336 -41.0119 -10.6853 -10.4567 -10.2709 -10.0684
     0.9138   1.2311   1.9680   2.3756   2.6007   3.4234   3.6766   4.2170
     4.3894   4.5146   4.9078   5.1605   5.9611   6.9565   7.9030   9.7881
    10.0535  15.8368

          k =-0.4986 0.1207-0.0974 (  3936 PWs)   bands (ev):

   -72.8911 -42.3152 -41.5337 -41.0119 -10.7235 -10.4768 -10.2544 -10.0329
     1.0812   1.3465   2.2085   2.4400   2.6619   3.0954   3.4010   4.1401
     4.3411   4.4867   4.8892   5.0310   5.9518   7.0861   7.8920   9.5725
    10.0678  16.0812

          k =-0.4987 0.2413 0.1812 (  3933 PWs)   bands (ev):

   -72.8911 -42.3152 -41.5337 -41.0119 -10.6393 -10.4400 -10.2851 -10.1106
     0.7729   1.1117   1.8474   2.2699   2.5754   3.6521   3.8581   4.1887
     4.5287   4.7484   4.8107   5.3207   5.9635   6.7894   7.9117   9.9934
    10.0654  15.6175

          k =-0.4988 0.2419 0.3687 (  3923 PWs)   bands (ev):

   -72.8911 -42.3152 -41.5337 -41.0119 -10.6854 -10.4601 -10.2674 -10.0683
     0.8994   1.2681   1.9631   2.2324   2.8020   3.3388   3.6743   4.1959
     4.3996   4.5153   4.9223   5.1672   5.9592   6.9620   7.9025   9.7759
    10.0668  15.6256

          k =-0.4984 0.2400-0.1937 (  3915 PWs)   bands (ev):

   -72.8911 -42.3152 -41.5336 -41.0119 -10.7262 -10.4716 -10.2593 -10.0304
     1.0979   1.3138   2.1760   2.5289   2.6984   2.9951   3.4713   4.1184
     4.2710   4.4810   4.8699   5.0935   5.9558   7.0920   7.8920   9.5810
    10.0599  16.0356

          k =-0.4985 0.2407-0.0062 (  3927 PWs)   bands (ev):

   -72.8911 -42.3152 -41.5337 -41.0119 -10.6847 -10.4587 -10.2689 -10.0690
     0.8987   1.2683   1.9597   2.2320   2.8011   3.3400   3.6752   4.2008
     4.4031   4.5140   4.9229   5.1650   5.9597   6.9607   7.9015   9.7766
    10.0669  15.6185

          k =-0.4992-0.1168 0.4701 (  3926 PWs)   bands (ev):

   -72.8911 -42.3152 -41.5337 -41.0119 -10.6396 -10.4386 -10.2866 -10.1100
     0.7091   1.2088   1.8378   2.2678   2.5865   3.4981   3.8943   4.2598
     4.5414   4.7585   4.8015   5.3256   5.9651   6.7859   7.9157   9.9764
    10.0911  15.2945

          k =-0.4993-0.1161 0.6575 (  3915 PWs)   bands (ev):

   -72.8911 -42.3152 -41.5336 -41.0119 -10.6863 -10.4571 -10.2704 -10.0673
     0.9164   1.2301   1.9673   2.3732   2.5953   3.4236   3.6782   4.2201
     4.3880   4.5188   4.9081   5.1609   5.9610   6.9578   7.9019   9.7860
    10.0538  15.8448

          k =-0.4989-0.1180 0.0952 (  3928 PWs)   bands (ev):

   -72.8911 -42.3152 -41.5337 -41.0119 -10.7251 -10.4783 -10.2527 -10.0313
     1.0854   1.3463   2.2077   2.4366   2.6589   3.0951   3.4022   4.1377
     4.3415   4.4869   4.8932   5.0307   5.9512   7.0887   7.8917   9.5688
    10.0681  16.0833

     the Fermi energy is     7.0349 ev

!    total energy              =    -520.62066357 Ry
     total all-electron energy =     -3720.873922 Ry
     estimated scf accuracy    <       0.00000001 Ry
     smearing contrib. (-TS)   =      -0.00496388 Ry
     internal energy E=F+TS    =    -520.61569969 Ry

     The total energy is F=E-TS. E is the sum of the following terms:
     one-electron contribution =    -240.25331520 Ry
     hartree contribution      =     145.18816447 Ry
     xc contribution           =     -61.24635417 Ry
     ewald contribution        =    -185.80810430 Ry
     Hubbard energy            =       0.24468597 Ry
     one-center paw contrib.   =    -178.74077648 Ry

     convergence has been achieved in  13 iterations
     force_hub    :    109.89s CPU     13.57s WALL (       7 calls)
     dndtau       :     96.53s CPU     11.91s WALL (    5292 calls)
     dprojdtau    :     14.27s CPU      1.94s WALL (    5292 calls)
     calc_doverla :     50.94s CPU      6.38s WALL (    5292 calls)
     matel_dSdtau :     71.25s CPU      8.53s WALL (   10584 calls)

     Forces acting on atoms (cartesian axes, Ry/au):

     atom    1 type  1   force =     0.00073888    0.00218730   -0.00169977
     atom    2 type  1   force =     0.00000614   -0.00129449    0.00385235
     atom    3 type  3   force =    -0.00032148   -0.00118066   -0.00121797
     atom    4 type  2   force =    -0.00038450    0.00096014    0.00155290
     atom    5 type  2   force =     0.00023072   -0.00163761   -0.00383215
     atom    6 type  2   force =     0.00020232   -0.00033307    0.00082057
     atom    7 type  2   force =    -0.00047208    0.00129840    0.00052407

     Total force =     0.007185     Total SCF correction =     0.000249


     Computing stress (Cartesian axis) and pressure

     stres_hub    :    319.17s CPU     36.13s WALL (       7 calls)
     dprojdepsilo :    256.75s CPU     29.19s WALL (    2268 calls)
     dprojdeps1   :     29.06s CPU      3.34s WALL (    2268 calls)
     dprojdeps2   :    144.34s CPU     16.34s WALL (    2268 calls)
     dprojdeps3   :     83.30s CPU      9.50s WALL (    2268 calls)
          total   stress  (Ry/bohr**3)                   (kbar)     P=       -1.68
  -0.00002896  -0.00000260   0.00000277           -4.26       -0.38        0.41
  -0.00000260  -0.00001024   0.00000450           -0.38       -1.51        0.66
   0.00000277   0.00000450   0.00000485            0.41        0.66        0.71

     Energy error            =      1.8E-04 Ry
     Gradient error          =      3.9E-03 Ry/Bohr
     Cell gradient error     =      4.3E+00 kbar

     number of scf cycles    =   7
     number of bfgs steps    =   6

     enthalpy           old  =    -520.6204817958 Ry
     enthalpy           new  =    -520.6206635726 Ry

     CASE: enthalpy          _new < enthalpy          _old

     new trust radius        =       0.0082201151 bohr
     new conv_thr            =       0.0000000182 Ry

     new unit-cell volume =    487.64938 a.u.^3 (    72.26218 Ang^3 )
     density =      3.85005 g/cm^3

CELL_PARAMETERS (angstrom)
   2.961154873  -0.003073350   0.002577572
   1.495885414   6.179769480  -0.015679171
   2.961175546   3.174995638   3.941768954

ATOMIC_POSITIONS (angstrom)
Mg               3.4403240958        4.7895655323        1.4556458501
Mg               3.4373868513        1.1117969514        0.3346444875
Mn               4.9186518719        2.3267856798        2.5386589459
O                3.4524978106        6.8982317230        1.8140585693
O                4.9189771798        4.3091972267        2.8702181657
O                3.4392444167        2.7908499772        1.3673680300
O                4.9312926977        8.3963263677        3.8967568983



     Writing config-only to output data dir .\out\\qgan.save\ :
     XML data file
     NEW-OLD atomic charge density approx. for the potential
     New effective cutoffs (rho, wfc):  493.89   61.77

     Check: negative core charge=   -0.000002

     Atomic wfc used for Hubbard projectors are orthogonalized


     total cpu time spent up to now is      375.2 secs

     Self-consistent Calculation

     iteration #  1     ecut=    60.00 Ry     beta= 0.70
     Davidson diagonalization with overlap
     ethr =  1.00E-06,  avg # of iterations =  9.0

     =================== HUBBARD OCCUPATIONS ===================
     ------------------------ ATOM    3 ------------------------
     Tr[ns(  3)] =   5.23779
     eigenvalues:
       0.220  0.311  0.399  0.714  0.976
     eigenvectors (columns):
       0.538 -0.001 -0.204  0.002  0.817
      -0.001  0.965  0.002  0.264  0.002
      -0.802 -0.000 -0.421 -0.002  0.423
       0.258  0.003 -0.884 -0.000 -0.391
       0.002  0.264  0.001 -0.965  0.001
     occupation matrix ns (before diag.):
       0.732  0.001  0.277 -0.209 -0.000
       0.001  0.339  0.000 -0.001 -0.102
       0.277  0.000  0.387 -0.058  0.001
      -0.209 -0.001 -0.058  0.475 -0.000
      -0.000 -0.102  0.001 -0.000  0.686

     Number of occupied Hubbard levels =    5.2378

     Threshold (ethr) on eigenvalues was too large:
     Diagonalizing with lowered threshold

     Davidson diagonalization with overlap
     ethr =  7.56E-08,  avg # of iterations =  2.3

     total cpu time spent up to now is      381.5 secs

     total energy              =    -520.62072273 Ry
     estimated scf accuracy    <       0.00003362 Ry

     iteration #  2     ecut=    60.00 Ry     beta= 0.70
     Davidson diagonalization with overlap
     ethr =  7.82E-08,  avg # of iterations =  4.5

     total cpu time spent up to now is      384.1 secs

     total energy              =    -520.62070921 Ry
     estimated scf accuracy    <       0.00014090 Ry

     iteration #  3     ecut=    60.00 Ry     beta= 0.70
     Davidson diagonalization with overlap
     ethr =  7.82E-08,  avg # of iterations =  2.0

     total cpu time spent up to now is      386.3 secs

     total energy              =    -520.62072495 Ry
     estimated scf accuracy    <       0.00005842 Ry

     iteration #  4     ecut=    60.00 Ry     beta= 0.70
     Davidson diagonalization with overlap
     ethr =  7.82E-08,  avg # of iterations =  2.0

     total cpu time spent up to now is      388.5 secs

     total energy              =    -520.62073421 Ry
     estimated scf accuracy    <       0.00001313 Ry

     iteration #  5     ecut=    60.00 Ry     beta= 0.70
     Davidson diagonalization with overlap
     ethr =  3.05E-08,  avg # of iterations =  1.9

     total cpu time spent up to now is      390.5 secs

     total energy              =    -520.62073594 Ry
     estimated scf accuracy    <       0.00000094 Ry

     iteration #  6     ecut=    60.00 Ry     beta= 0.70
     Davidson diagonalization with overlap
     ethr =  2.18E-09,  avg # of iterations =  6.5

     total cpu time spent up to now is      393.6 secs

     total energy              =    -520.62073689 Ry
     estimated scf accuracy    <       0.00000076 Ry

     iteration #  7     ecut=    60.00 Ry     beta= 0.70
     Davidson diagonalization with overlap
     ethr =  1.78E-09,  avg # of iterations =  1.7

     total cpu time spent up to now is      395.7 secs

     total energy              =    -520.62073699 Ry
     estimated scf accuracy    <       0.00000009 Ry

     iteration #  8     ecut=    60.00 Ry     beta= 0.70
     Davidson diagonalization with overlap
     ethr =  2.14E-10,  avg # of iterations = 11.6

     total cpu time spent up to now is      399.7 secs

     total energy              =    -520.62073714 Ry
     estimated scf accuracy    <       0.00000009 Ry

     iteration #  9     ecut=    60.00 Ry     beta= 0.70
     Davidson diagonalization with overlap
     ethr =  2.14E-10,  avg # of iterations =  1.3

     total cpu time spent up to now is      401.7 secs

     total energy              =    -520.62073716 Ry
     estimated scf accuracy    <       0.00000006 Ry

     iteration # 10     ecut=    60.00 Ry     beta= 0.70
     Davidson diagonalization with overlap
     ethr =  1.30E-10,  avg # of iterations =  3.1

     total cpu time spent up to now is      404.1 secs

     total energy              =    -520.62073721 Ry
     estimated scf accuracy    <       0.00000002 Ry

     iteration # 11     ecut=    60.00 Ry     beta= 0.70
     Davidson diagonalization with overlap
     ethr =  5.75E-11,  avg # of iterations =  6.6

     total cpu time spent up to now is      406.9 secs

     total energy              =    -520.62073722 Ry
     estimated scf accuracy    <       0.00000002 Ry

     iteration # 12     ecut=    60.00 Ry     beta= 0.70
     Davidson diagonalization with overlap
     ethr =  4.36E-11,  avg # of iterations =  4.4

     total cpu time spent up to now is      409.4 secs

     End of self-consistent calculation

     =================== HUBBARD OCCUPATIONS ===================
     ------------------------ ATOM    3 ------------------------
     Tr[ns(  3)] =   5.23690
     eigenvalues:
       0.219  0.311  0.398  0.714  0.976
     eigenvectors (columns):
       0.540 -0.001 -0.205  0.001  0.816
      -0.001  0.964  0.002  0.265  0.002
      -0.802 -0.001 -0.421 -0.001  0.424
       0.257  0.003 -0.884 -0.000 -0.392
       0.001  0.265  0.001 -0.964  0.001
     occupation matrix ns (before diag.):
       0.731  0.001  0.277 -0.209  0.000
       0.001  0.340  0.000 -0.001 -0.103
       0.277  0.000  0.387 -0.059  0.001
      -0.209 -0.001 -0.059  0.475 -0.000
       0.000 -0.103  0.001 -0.000  0.685

     Number of occupied Hubbard levels =    5.2369

          k = 0.0000 0.0000 0.0000 (  3893 PWs)   bands (ev):

   -72.8872 -42.3141 -41.5344 -40.9256 -11.8797 -10.5499 -10.2823 -10.0600
     0.8189   1.5004   2.2342   2.7012   3.0702   3.9261   4.1062   4.3683
     4.6241   5.4100   5.6234   5.6676   6.0570   7.1387   8.0019  10.0702
    10.3429  11.7272

          k =-0.0002 0.0005 0.1873 (  3895 PWs)   bands (ev):

   -72.8871 -42.3142 -41.5344 -40.9256 -11.6840 -10.7055 -10.3504 -10.0987
     1.0136   1.7966   1.9847   3.0722   3.0821   3.8875   4.0265   4.4796
     4.5988   4.9549   5.5693   5.5927   5.7617   7.0958   8.1022   9.7816
    10.3850  12.8427

          k = 0.0003-0.0010-0.3746 (  3894 PWs)   bands (ev):

   -72.8870 -42.3142 -41.5344 -40.9256 -11.3567 -10.9780 -10.4201 -10.1522
     1.2746   1.8218   2.5105   3.0155   3.0686   3.4961   3.8810   4.5442
     4.5701   4.8382   5.4741   5.5136   5.6302   7.0522   8.1836   9.5418
    10.4277  14.4497

          k = 0.0002 0.1194-0.0963 (  3889 PWs)   bands (ev):

   -72.8871 -42.3141 -41.5344 -40.9256 -11.7752 -10.5775 -10.4174 -10.0430
     1.0406   1.5170   2.1933   2.8018   3.1053   3.9474   4.1130   4.3150
     4.6870   5.0199   5.4818   5.6199   6.0647   7.1625   7.9943  10.1333
    10.3832  12.5182

          k = 0.0000 0.1199 0.0910 (  3904 PWs)   bands (ev):

   -72.8872 -42.3142 -41.5344 -40.9256 -11.7276 -10.7883 -10.2440 -10.0527
     0.9502   1.8002   2.0997   2.8981   3.0378   3.8085   3.9264   4.4844
     4.6219   5.2135   5.5744   5.5839   5.8338   7.1326   8.0987   9.7846
    10.3438  12.4924

          k = 0.0005 0.1183-0.4710 (  3922 PWs)   bands (ev):

   -72.8871 -42.3142 -41.5344 -40.9256 -11.4045 -11.0601 -10.3214 -10.0939
     1.3079   1.6518   2.4228   3.0367   3.1605   3.5132   3.9085   4.3397
     4.5878   5.0770   5.4347   5.4910   5.6759   7.0883   8.2003   9.5483
    10.3865  13.8557

          k = 0.0004 0.1189-0.2836 (  3906 PWs)   bands (ev):

   -72.8871 -42.3142 -41.5344 -40.9256 -11.5324 -10.7846 -10.4803 -10.0831
     1.2367   1.7901   2.2197   2.9726   3.1051   3.8329   3.9053   4.4343
     4.5026   4.9014   5.4401   5.5403   5.7716   7.1225   8.1216   9.8587
    10.4251  14.0873

          k =-0.0004-0.2388 0.1926 (  3908 PWs)   bands (ev):

   -72.8871 -42.3141 -41.5344 -40.9256 -11.6420 -10.6759 -10.5062 -10.0293
     1.0195   1.8588   2.3983   2.8318   3.1428   3.6050   3.9726   4.2565
     4.5724   4.9919   5.4709   5.5713   6.0696   7.1864   7.9853  10.2009
    10.4230  13.8313

          k =-0.0006-0.2382 0.3799 (  3906 PWs)   bands (ev):

   -72.8871 -42.3142 -41.5344 -40.9256 -11.5893 -10.8584 -10.3676 -10.0397
     1.3348   1.7532   2.0004   2.9143   3.0686   3.8027   3.9483   4.4377
     4.7420   4.8793   5.4277   5.5229   5.8058   7.1576   8.1279   9.8665
    10.3841  13.4181

          k =-0.0001-0.2398-0.1820 (  3902 PWs)   bands (ev):

   -72.8872 -42.3142 -41.5344 -40.9256 -11.4445 -11.1318 -10.2269 -10.0496
     1.1529   1.8267   2.3067   3.0067   3.0382   3.7150   3.9378   4.1049
     4.5985   5.1807   5.4745   5.5560   5.7232   7.1228   8.1673   9.5346
    10.3452  13.7659

          k = 0.2498-0.0608-0.1387 (  3913 PWs)   bands (ev):

   -72.8842 -42.3111 -41.5288 -40.9648 -11.3224 -10.5783 -10.2132 -10.0388
     1.4071   1.6773   2.1273   2.4354   2.7755   3.0221   3.8366   4.0098
     4.2830   5.0141   5.2923   5.5109   6.1147   6.9801   8.0227   9.6900
    10.1008  13.9371

          k = 0.2496-0.0603 0.0487 (  3893 PWs)   bands (ev):

   -72.8842 -42.3111 -41.5288 -40.9648 -11.4205 -10.4507 -10.2603 -10.0055
     1.4255   1.8142   2.0515   2.4448   2.8285   2.8667   3.7131   3.9873
     4.2929   5.0297   5.3772   5.5586   6.0417   7.0700   7.9517   9.7558
    10.0762  13.5877

          k = 0.2501-0.0618-0.5133 (  3919 PWs)   bands (ev):

   -72.8843 -42.3111 -41.5288 -40.9648 -11.2270 -10.5471 -10.3439 -10.0595
     1.3274   1.6862   2.1971   2.5561   2.6755   3.0141   3.9976   4.1268
     4.3888   4.9174   5.0583   5.4760   6.1573   6.9703   8.0181   9.6440
    10.0314  14.7110

          k = 0.2500-0.0613-0.3260 (  3917 PWs)   bands (ev):

   -72.8843 -42.3111 -41.5288 -40.9648 -11.0444 -10.7577 -10.2933 -10.0987
     1.3404   1.6536   2.0905   2.4463   2.7353   3.3606   3.9177   4.2057
     4.3865   4.8538   5.0037   5.4618   6.1791   6.8933   8.0853   9.8039
     9.8606  15.1064

          k = 0.2500 0.0586-0.2350 (  3917 PWs)   bands (ev):

   -72.8843 -42.3111 -41.5288 -40.9648 -11.2281 -10.5467 -10.3428 -10.0597
     1.3272   1.6870   2.1976   2.5536   2.6761   3.0129   3.9950   4.1264
     4.3907   4.9202   5.0564   5.4769   6.1579   6.9718   8.0175   9.6453
    10.0298  14.7073

          k = 0.2499 0.0591-0.0477 (  3896 PWs)   bands (ev):

   -72.8842 -42.3111 -41.5288 -40.9648 -11.4212 -10.4506 -10.2594 -10.0054
     1.4253   1.8137   2.0517   2.4440   2.8244   2.8710   3.7125   3.9859
     4.2952   5.0263   5.3811   5.5592   6.0404   7.0706   7.9517   9.7558
    10.0764  13.5857

          k = 0.2503 0.0575-0.6096 (  3911 PWs)   bands (ev):

   -72.8842 -42.3111 -41.5288 -40.9648 -11.3222 -10.5776 -10.2140 -10.0390
     1.4058   1.6783   2.1270   2.4337   2.7798   3.0199   3.8374   4.0110
     4.2839   5.0118   5.2908   5.5121   6.1155   6.9803   8.0227   9.6873
    10.1018  13.9406

          k = 0.2502 0.0580-0.4223 (  3914 PWs)   bands (ev):

   -72.8843 -42.3111 -41.5288 -40.9648 -11.0442 -10.7570 -10.2939 -10.0991
     1.3404   1.6531   2.0902   2.4457   2.7356   3.3629   3.9199   4.2050
     4.3834   4.8530   5.0050   5.4626   6.1799   6.8939   8.0845   9.8043
     9.8587  15.1085

          k = 0.2494-0.2996 0.0539 (  3925 PWs)   bands (ev):

   -72.8843 -42.3111 -41.5288 -40.9648 -11.1571 -10.6460 -10.3409 -10.0444
     1.4736   1.8467   2.1056   2.4689   2.6745   3.1238   3.7097   4.0370
     4.3785   4.8928   5.1154   5.5319   6.1503   6.9817   8.0321   9.6587
    10.1121  14.7156

          k = 0.2492-0.2991 0.2413 (  3914 PWs)   bands (ev):

   -72.8843 -42.3111 -41.5288 -40.9648 -11.2888 -10.4721 -10.4008 -10.0095
     1.3885   1.9733   2.2596   2.5108   2.6654   2.8975   3.5570   3.9463
     4.4778   4.9058   5.1603   5.5886   6.1098   7.0869   7.9381   9.7041
    10.0767  14.4958

          k = 0.2497-0.3006-0.3207 (  3912 PWs)   bands (ev):

   -72.8842 -42.3111 -41.5288 -40.9648 -11.2706 -10.6415 -10.2241 -10.0276
     1.6127   1.7834   1.9395   2.5597   2.7907   3.0558   3.5706   3.8885
     4.1521   5.0741   5.3451   5.5710   6.1035   6.9848   8.0340   9.7149
    10.1847  13.8661

          k = 0.2496-0.3001-0.1334 (  3920 PWs)   bands (ev):

   -72.8842 -42.3112 -41.5288 -40.9648 -11.0631 -10.8633 -10.1952 -10.0582
     1.5716   1.7209   1.9720   2.5644   2.7555   3.1070   3.5144   4.1745
     4.2929   4.8432   5.3114   5.5421   6.1515   6.8933   8.0979   9.9013
     9.9434  14.6275

          k = 0.2496-0.1802-0.0424 (  3912 PWs)   bands (ev):

   -72.8842 -42.3111 -41.5288 -40.9648 -11.2695 -10.6420 -10.2248 -10.0276
     1.6132   1.7841   1.9384   2.5642   2.7896   3.0517   3.5704   3.8895
     4.1537   5.0762   5.3404   5.5723   6.1047   6.9844   8.0331   9.7170
    10.1825  13.8663

          k = 0.2494-0.1797 0.1450 (  3920 PWs)   bands (ev):

   -72.8843 -42.3111 -41.5288 -40.9648 -11.2877 -10.4726 -10.4016 -10.0095
     1.3880   1.9727   2.2615   2.5141   2.6648   2.8961   3.5556   3.9470
     4.4769   4.9045   5.1625   5.5879   6.1099   7.0862   7.9381   9.7037
    10.0769  14.5000

          k = 0.2499-0.1812-0.4170 (  3924 PWs)   bands (ev):

   -72.8843 -42.3111 -41.5288 -40.9648 -11.1574 -10.6467 -10.3402 -10.0440
     1.4733   1.8476   2.1047   2.4710   2.6719   3.1264   3.7060   4.0394
     4.3781   4.8941   5.1151   5.5307   6.1486   6.9806   8.0332   9.6580
    10.1150  14.7118

          k = 0.2498-0.1807-0.2297 (  3914 PWs)   bands (ev):

   -72.8842 -42.3112 -41.5288 -40.9648 -11.0631 -10.8640 -10.1945 -10.0580
     1.5723   1.7199   1.9731   2.5660   2.7547   3.1062   3.5118   4.1756
     4.2932   4.8419   5.3145   5.5407   6.1503   6.8927   8.0985   9.9005
     9.9459  14.6268

          k =-0.4996 0.1216 0.2773 (  3922 PWs)   bands (ev):

   -72.8819 -42.3081 -41.5232 -41.0036 -10.6342 -10.4344 -10.2888 -10.0910
     0.7133   1.2118   1.8412   2.2773   2.5974   3.4949   3.8910   4.2621
     4.5458   4.7581   4.8051   5.3334   5.9806   6.7966   7.9291   9.9938
    10.1036  15.3052

          k =-0.4998 0.1222 0.4647 (  3918 PWs)   bands (ev):

   -72.8819 -42.3081 -41.5232 -41.0036 -10.6786 -10.4520 -10.2736 -10.0506
     0.9174   1.2311   1.9704   2.3813   2.6042   3.4236   3.6787   4.2248
     4.3998   4.5171   4.9122   5.1664   5.9771   6.9653   7.9141   9.8020
    10.0689  15.8419

          k =-0.4993 0.1206-0.0973 (  3936 PWs)   bands (ev):

   -72.8818 -42.3080 -41.5232 -41.0037 -10.7157 -10.4725 -10.2569 -10.0160
     1.0811   1.3453   2.2088   2.4480   2.6640   3.1043   3.4012   4.1448
     4.3527   4.4901   4.8981   5.0338   5.9678   7.0940   7.9031   9.5872
    10.0837  16.0905

          k =-0.4994 0.2410 0.1810 (  3933 PWs)   bands (ev):

   -72.8819 -42.3081 -41.5232 -41.0036 -10.6342 -10.4346 -10.2885 -10.0913
     0.7793   1.1134   1.8485   2.2746   2.5809   3.6488   3.8622   4.1950
     4.5385   4.7472   4.8156   5.3274   5.9793   6.7999   7.9229  10.0067
    10.0802  15.6151

          k =-0.4996 0.2415 0.3684 (  3923 PWs)   bands (ev):

   -72.8819 -42.3081 -41.5232 -41.0036 -10.6786 -10.4552 -10.2705 -10.0505
     0.9025   1.2686   1.9645   2.2381   2.8052   3.3414   3.6763   4.2055
     4.4070   4.5179   4.9252   5.1744   5.9753   6.9707   7.9136   9.7905
    10.0819  15.6337

          k =-0.4991 0.2400-0.1936 (  3915 PWs)   bands (ev):

   -72.8818 -42.3080 -41.5232 -41.0037 -10.7182 -10.4671 -10.2617 -10.0139
     1.0974   1.3126   2.1783   2.5359   2.7010   3.0009   3.4735   4.1215
     4.2840   4.4849   4.8770   5.0978   5.9720   7.0994   7.9031   9.5958
    10.0759  16.0470

          k =-0.4992 0.2405-0.0063 (  3927 PWs)   bands (ev):

   -72.8819 -42.3081 -41.5232 -41.0036 -10.6780 -10.4541 -10.2716 -10.0511
     0.9021   1.2687   1.9616   2.2379   2.8046   3.3423   3.6772   4.2094
     4.4097   4.5172   4.9254   5.1727   5.9757   6.9697   7.9128   9.7908
    10.0821  15.6277

          k =-0.5000-0.1171 0.4700 (  3926 PWs)   bands (ev):

   -72.8819 -42.3081 -41.5232 -41.0036 -10.6345 -10.4334 -10.2897 -10.0907
     0.7147   1.2113   1.8393   2.2728   2.5919   3.4963   3.8980   4.2661
     4.5502   4.7562   4.8059   5.3322   5.9809   6.7966   7.9272   9.9906
    10.1052  15.2995

          k =-0.5002-0.1166 0.6573 (  3915 PWs)   bands (ev):

   -72.8819 -42.3081 -41.5232 -41.0036 -10.6794 -10.4523 -10.2732 -10.0498
     0.9198   1.2301   1.9698   2.3792   2.5995   3.4240   3.6803   4.2269
     4.3987   4.5205   4.9123   5.1670   5.9770   6.9664   7.9132   9.8002
    10.0692  15.8479

          k =-0.4997-0.1181 0.0953 (  3928 PWs)   bands (ev):

   -72.8818 -42.3080 -41.5232 -41.0037 -10.7170 -10.4736 -10.2556 -10.0147
     1.0846   1.3450   2.2082   2.4453   2.6611   3.1044   3.4021   4.1427
     4.3531   4.4903   4.9013   5.0337   5.9674   7.0961   7.9029   9.5842
    10.0839  16.0927

     the Fermi energy is     7.0460 ev

!    total energy              =    -520.62073731 Ry
     total all-electron energy =     -3720.873996 Ry
     estimated scf accuracy    <          8.4E-09 Ry
     smearing contrib. (-TS)   =      -0.00493193 Ry
     internal energy E=F+TS    =    -520.61580539 Ry

     The total energy is F=E-TS. E is the sum of the following terms:
     one-electron contribution =    -240.41306977 Ry
     hartree contribution      =     145.28029886 Ry
     xc contribution           =     -61.24944713 Ry
     ewald contribution        =    -185.73743089 Ry
     Hubbard energy            =       0.24470467 Ry
     one-center paw contrib.   =    -178.74086112 Ry

     convergence has been achieved in  12 iterations
     force_hub    :    125.17s CPU     15.42s WALL (       8 calls)
     dndtau       :    109.86s CPU     13.54s WALL (    6048 calls)
     dprojdtau    :     15.62s CPU      2.20s WALL (    6048 calls)
     calc_doverla :     57.80s CPU      7.24s WALL (    6048 calls)
     matel_dSdtau :     81.36s CPU      9.71s WALL (   12096 calls)

     Forces acting on atoms (cartesian axes, Ry/au):

     atom    1 type  1   force =     0.00058188    0.00117853   -0.00044152
     atom    2 type  1   force =     0.00001007   -0.00171306    0.00181215
     atom    3 type  3   force =    -0.00028579   -0.00057045    0.00015373
     atom    4 type  2   force =    -0.00038442    0.00032709    0.00085038
     atom    5 type  2   force =     0.00024258   -0.00156288   -0.00215449
     atom    6 type  2   force =     0.00018954    0.00132362   -0.00007090
     atom    7 type  2   force =    -0.00035386    0.00101715   -0.00014935

     Total force =     0.004435     Total SCF correction =     0.000120


     Computing stress (Cartesian axis) and pressure

     stres_hub    :    359.77s CPU     41.24s WALL (       8 calls)
     dprojdepsilo :    289.41s CPU     33.32s WALL (    2592 calls)
     dprojdeps1   :     31.14s CPU      3.82s WALL (    2592 calls)
     dprojdeps2   :    161.72s CPU     18.66s WALL (    2592 calls)
     dprojdeps3   :     96.47s CPU     10.83s WALL (    2592 calls)
          total   stress  (Ry/bohr**3)                   (kbar)     P=       -0.23
  -0.00000012  -0.00000179   0.00000193           -0.02       -0.26        0.28
  -0.00000179  -0.00000173   0.00000121           -0.26       -0.25        0.18
   0.00000193   0.00000121  -0.00000277            0.28        0.18       -0.41

     Energy error            =      7.4E-05 Ry
     Gradient error          =      2.2E-03 Ry/Bohr
     Cell gradient error     =      4.1E-01 kbar

     number of scf cycles    =   8
     number of bfgs steps    =   7

     enthalpy           old  =    -520.6206635726 Ry
     enthalpy           new  =    -520.6207373116 Ry

     CASE: enthalpy          _new < enthalpy          _old

     new trust radius        =       0.0056428255 bohr
     new conv_thr            =       0.0000000100 Ry

     new unit-cell volume =    487.58828 a.u.^3 (    72.25313 Ang^3 )
     density =      3.85054 g/cm^3

CELL_PARAMETERS (angstrom)
   2.959643212  -0.003382696   0.002902371
   1.494459012   6.180376959  -0.013876773
   2.959769090   3.176128577   3.943968049

ATOMIC_POSITIONS (angstrom)
Mg               3.4388755970        4.7918474780        1.4567187697
Mg               3.4355605885        1.1102403797        0.3379928661
Mn               4.9158825134        2.3271970539        2.5401400710
O                3.4498147597        6.8992056846        1.8176345682
O                4.9165708666        4.3085933632        2.8700193023
O                3.4375335988        2.7913944347        1.3689758096
O                4.9279012278        8.3988926839        3.9008715942



     Writing config-only to output data dir .\out\\qgan.save\ :
     XML data file
     NEW-OLD atomic charge density approx. for the potential
     New effective cutoffs (rho, wfc):  493.48   61.72

     Check: negative core charge=   -0.000002

     Atomic wfc used for Hubbard projectors are orthogonalized


     total cpu time spent up to now is      419.3 secs

     Self-consistent Calculation

     iteration #  1     ecut=    60.00 Ry     beta= 0.70
     Davidson diagonalization with overlap
     ethr =  1.00E-06,  avg # of iterations =  5.0

     =================== HUBBARD OCCUPATIONS ===================
     ------------------------ ATOM    3 ------------------------
     Tr[ns(  3)] =   5.23625
     eigenvalues:
       0.219  0.312  0.399  0.713  0.975
     eigenvectors (columns):
       0.540  0.001 -0.206  0.001 -0.816
      -0.001 -0.964  0.002  0.265 -0.002
      -0.802  0.001 -0.420 -0.001 -0.425
       0.256 -0.003 -0.884 -0.001  0.392
       0.001 -0.265  0.001 -0.964 -0.001
     occupation matrix ns (before diag.):
       0.731  0.001  0.278 -0.209  0.000
       0.001  0.340  0.000 -0.001 -0.103
       0.278  0.000  0.387 -0.059  0.001
      -0.209 -0.001 -0.059  0.475 -0.000
       0.000 -0.103  0.001 -0.000  0.685

     Number of occupied Hubbard levels =    5.2362

     Threshold (ethr) on eigenvalues was too large:
     Diagonalizing with lowered threshold

     Davidson diagonalization with overlap
     ethr =  1.87E-08,  avg # of iterations =  5.0

     total cpu time spent up to now is      425.0 secs

     total energy              =    -520.62075944 Ry
     estimated scf accuracy    <       0.00000940 Ry

     iteration #  2     ecut=    60.00 Ry     beta= 0.70
     Davidson diagonalization with overlap
     ethr =  2.19E-08,  avg # of iterations =  4.1

     total cpu time spent up to now is      427.6 secs

     total energy              =    -520.62075683 Ry
     estimated scf accuracy    <       0.00002465 Ry

     iteration #  3     ecut=    60.00 Ry     beta= 0.70
     Davidson diagonalization with overlap
     ethr =  2.19E-08,  avg # of iterations =  2.0

     total cpu time spent up to now is      429.9 secs

     total energy              =    -520.62075984 Ry
     estimated scf accuracy    <       0.00002058 Ry

     iteration #  4     ecut=    60.00 Ry     beta= 0.70
     Davidson diagonalization with overlap
     ethr =  2.19E-08,  avg # of iterations =  2.0

     total cpu time spent up to now is      432.1 secs

     total energy              =    -520.62076240 Ry
     estimated scf accuracy    <       0.00000313 Ry

     iteration #  5     ecut=    60.00 Ry     beta= 0.70
     Davidson diagonalization with overlap
     ethr =  7.28E-09,  avg # of iterations =  1.8

     total cpu time spent up to now is      434.2 secs

     total energy              =    -520.62076286 Ry
     estimated scf accuracy    <       0.00000020 Ry

     iteration #  6     ecut=    60.00 Ry     beta= 0.70
     Davidson diagonalization with overlap
     ethr =  4.72E-10,  avg # of iterations =  6.3

     total cpu time spent up to now is      437.1 secs

     total energy              =    -520.62076304 Ry
     estimated scf accuracy    <       0.00000008 Ry

     iteration #  7     ecut=    60.00 Ry     beta= 0.70
     Davidson diagonalization with overlap
     ethr =  1.83E-10,  avg # of iterations =  5.1

     total cpu time spent up to now is      439.8 secs

     total energy              =    -520.62076307 Ry
     estimated scf accuracy    <       0.00000001 Ry

     iteration #  8     ecut=    60.00 Ry     beta= 0.70
     Davidson diagonalization with overlap
     c_bands:  4 eigenvalues not converged
     c_bands:  1 eigenvalues not converged
     c_bands:  3 eigenvalues not converged
     c_bands:  2 eigenvalues not converged
     c_bands:  1 eigenvalues not converged
     c_bands:  5 eigenvalues not converged
     c_bands:  1 eigenvalues not converged
     c_bands:  2 eigenvalues not converged
     ethr =  3.23E-11,  avg # of iterations = 15.6

     total cpu time spent up to now is      444.4 secs

     End of self-consistent calculation

     =================== HUBBARD OCCUPATIONS ===================
     ------------------------ ATOM    3 ------------------------
     Tr[ns(  3)] =   5.23678
     eigenvalues:
       0.219  0.312  0.399  0.713  0.975
     eigenvectors (columns):
       0.540  0.001 -0.206  0.001 -0.816
      -0.001 -0.964  0.002  0.265 -0.002
      -0.802  0.001 -0.420 -0.001 -0.425
       0.255 -0.003 -0.884 -0.001  0.392
       0.001 -0.265  0.001 -0.964 -0.001
     occupation matrix ns (before diag.):
       0.730  0.001  0.278 -0.209  0.000
       0.001  0.340  0.000 -0.001 -0.103
       0.278  0.000  0.387 -0.059  0.001
      -0.209 -0.001 -0.059  0.476 -0.000
       0.000 -0.103  0.001 -0.000  0.685

     Number of occupied Hubbard levels =    5.2368

          k = 0.0000 0.0000 0.0000 (  3893 PWs)   bands (ev):

   -72.8855 -42.3130 -41.5324 -40.9237 -11.8805 -10.5531 -10.2822 -10.0551
     0.8168   1.5006   2.2325   2.7027   3.0715   3.9299   4.1033   4.3717
     4.6210   5.4126   5.6272   5.6781   6.0597   7.1416   8.0037  10.0735
    10.3459  11.7295

          k =-0.0002 0.0005 0.1873 (  3895 PWs)   bands (ev):

   -72.8854 -42.3130 -41.5324 -40.9237 -11.6851 -10.7082 -10.3496 -10.0947
     1.0118   1.7965   1.9840   3.0734   3.0819   3.8914   4.0247   4.4826
     4.5947   4.9570   5.5741   5.6035   5.7644   7.0988   8.1045   9.7848
    10.3878  12.8451

          k = 0.0004-0.0009-0.3745 (  3894 PWs)   bands (ev):

   -72.8853 -42.3131 -41.5324 -40.9237 -11.3585 -10.9800 -10.4185 -10.1488
     1.2725   1.8212   2.5102   3.0168   3.0698   3.4935   3.8847   4.5422
     4.5726   4.8378   5.4783   5.5248   5.6339   7.0552   8.1863   9.5444
    10.4305  14.4542

          k = 0.0002 0.1194-0.0963 (  3889 PWs)   bands (ev):

   -72.8855 -42.3130 -41.5324 -40.9237 -11.7759 -10.5796 -10.4182 -10.0383
     1.0392   1.5168   2.1920   2.8014   3.1064   3.9513   4.1113   4.3184
     4.6855   5.0206   5.4863   5.6303   6.0668   7.1656   7.9960  10.1367
    10.3860  12.5199

          k = 0.0000 0.1199 0.0910 (  3904 PWs)   bands (ev):

   -72.8855 -42.3130 -41.5324 -40.9237 -11.7286 -10.7908 -10.2428 -10.0494
     0.9484   1.7984   2.1007   2.8980   3.0391   3.8075   3.9301   4.4876
     4.6177   5.2182   5.5838   5.5863   5.8365   7.1357   8.1005   9.7884
    10.3469  12.4944

          k = 0.0006 0.1185-0.4709 (  3922 PWs)   bands (ev):

   -72.8854 -42.3131 -41.5324 -40.9237 -11.4061 -11.0621 -10.3195 -10.0912
     1.3063   1.6504   2.4221   3.0380   3.1616   3.5120   3.9121   4.3387
     4.5906   5.0764   5.4377   5.5018   5.6788   7.0915   8.2025   9.5520
    10.3895  13.8593

          k = 0.0004 0.1189-0.2836 (  3906 PWs)   bands (ev):

   -72.8854 -42.3130 -41.5324 -40.9237 -11.5335 -10.7867 -10.4801 -10.0791
     1.2351   1.7900   2.2181   2.9724   3.1062   3.8325   3.9092   4.4373
     4.5007   4.9006   5.4450   5.5511   5.7741   7.1256   8.1239   9.8617
    10.4278  14.0900

          k =-0.0005-0.2388 0.1926 (  3908 PWs)   bands (ev):

   -72.8854 -42.3130 -41.5324 -40.9237 -11.6428 -10.6755 -10.5094 -10.0247
     1.0191   1.8570   2.3977   2.8304   3.1438   3.6050   3.9766   4.2598
     4.5716   4.9924   5.4753   5.5817   6.0708   7.1898   7.9871  10.2044
    10.4256  13.8337

          k =-0.0006-0.2383 0.3799 (  3906 PWs)   bands (ev):

   -72.8854 -42.3130 -41.5324 -40.9237 -11.5902 -10.8608 -10.3667 -10.0362
     1.3333   1.7522   1.9997   2.9132   3.0698   3.8036   3.9521   4.4408
     4.7410   4.8790   5.4309   5.5334   5.8079   7.1609   8.1297   9.8704
    10.3870  13.4198

          k =-0.0001-0.2397-0.1819 (  3902 PWs)   bands (ev):

   -72.8855 -42.3131 -41.5324 -40.9237 -11.4461 -11.1336 -10.2247 -10.0473
     1.1516   1.8241   2.3061   3.0081   3.0394   3.7155   3.9413   4.1037
     4.6016   5.1810   5.4850   5.5567   5.7265   7.1262   8.1691   9.5391
    10.3483  13.7679

          k = 0.2499-0.0607-0.1386 (  3913 PWs)   bands (ev):

   -72.8825 -42.3099 -41.5268 -40.9631 -11.3228 -10.5803 -10.2133 -10.0331
     1.4057   1.6787   2.1264   2.4354   2.7747   3.0219   3.8409   4.0104
     4.2856   5.0121   5.2951   5.5162   6.1175   6.9826   8.0254   9.6934
    10.1045  13.9381

          k = 0.2498-0.0603 0.0486 (  3893 PWs)   bands (ev):

   -72.8825 -42.3099 -41.5268 -40.9631 -11.4207 -10.4531 -10.2603  -9.9997
     1.4241   1.8147   2.0511   2.4439   2.8286   2.8656   3.7138   3.9949
     4.2918   5.0303   5.3790   5.5642   6.0445   7.0722   7.9541   9.7593
    10.0803  13.5889

          k = 0.2503-0.0617-0.5132 (  3919 PWs)   bands (ev):

   -72.8826 -42.3099 -41.5268 -40.9631 -11.2277 -10.5490 -10.3435 -10.0540
     1.3266   1.6867   2.1973   2.5553   2.6753   3.0133   4.0024   4.1289
     4.3879   4.9193   5.0569   5.4819   6.1606   6.9725   8.0212   9.6479
    10.0353  14.7122

          k = 0.2501-0.0612-0.3259 (  3917 PWs)   bands (ev):

   -72.8826 -42.3100 -41.5268 -40.9631 -11.0458 -10.7589 -10.2927 -10.0935
     1.3399   1.6541   2.0907   2.4463   2.7356   3.3592   3.9207   4.2081
     4.3886   4.8531   5.0027   5.4674   6.1825   6.8957   8.0884   9.8078
     9.8642  15.1050

          k = 0.2502 0.0586-0.2350 (  3917 PWs)   bands (ev):

   -72.8826 -42.3099 -41.5268 -40.9631 -11.2287 -10.5487 -10.3425 -10.0542
     1.3266   1.6873   2.1978   2.5529   2.6758   3.0124   4.0000   4.1288
     4.3897   4.9217   5.0553   5.4827   6.1611   6.9739   8.0206   9.6492
    10.0336  14.7091

          k = 0.2500 0.0591-0.0477 (  3896 PWs)   bands (ev):

   -72.8826 -42.3099 -41.5268 -40.9631 -11.4213 -10.4530 -10.2596  -9.9996
     1.4241   1.8142   2.0513   2.4432   2.8247   2.8695   3.7134   3.9936
     4.2938   5.0274   5.3823   5.5648   6.0433   7.0727   7.9541   9.7593
    10.0805  13.5872

          k = 0.2505 0.0577-0.6095 (  3911 PWs)   bands (ev):

   -72.8825 -42.3099 -41.5268 -40.9631 -11.3227 -10.5797 -10.2140 -10.0333
     1.4045   1.6796   2.1261   2.4341   2.7785   3.0199   3.8416   4.0114
     4.2863   5.0103   5.2938   5.5173   6.1183   6.9826   8.0255   9.6910
    10.1056  13.9411

          k = 0.2504 0.0582-0.4222 (  3914 PWs)   bands (ev):

   -72.8826 -42.3100 -41.5268 -40.9631 -11.0457 -10.7583 -10.2932 -10.0938
     1.3399   1.6537   2.0904   2.4460   2.7357   3.3612   3.9227   4.2073
     4.3860   4.8524   5.0037   5.4681   6.1832   6.8962   8.0877   9.8083
     9.8624  15.1067

          k = 0.2495-0.2995 0.0540 (  3925 PWs)   bands (ev):

   -72.8826 -42.3099 -41.5268 -40.9631 -11.1577 -10.6476 -10.3407 -10.0392
     1.4735   1.8468   2.1051   2.4692   2.6743   3.1231   3.7110   4.0402
     4.3794   4.8944   5.1148   5.5371   6.1539   6.9837   8.0348   9.6633
    10.1160  14.7165

          k = 0.2493-0.2991 0.2413 (  3914 PWs)   bands (ev):

   -72.8826 -42.3099 -41.5268 -40.9631 -11.2890 -10.4726 -10.4024 -10.0041
     1.3883   1.9722   2.2598   2.5116   2.6650   2.8959   3.5569   3.9525
     4.4772   4.9078   5.1607   5.5946   6.1134   7.0885   7.9405   9.7081
    10.0812  14.4981

          k = 0.2498-0.3005-0.3206 (  3912 PWs)   bands (ev):

   -72.8825 -42.3099 -41.5268 -40.9631 -11.2709 -10.6434 -10.2240 -10.0222
     1.6122   1.7841   1.9385   2.5598   2.7906   3.0544   3.5733   3.8894
     4.1552   5.0743   5.3468   5.5760   6.1069   6.9870   8.0363   9.7192
    10.1885  13.8668

          k = 0.2497-0.3000-0.1333 (  3920 PWs)   bands (ev):

   -72.8825 -42.3100 -41.5268 -40.9631 -11.0642 -10.8646 -10.1948 -10.0530
     1.5717   1.7211   1.9714   2.5652   2.7549   3.1066   3.5164   4.1763
     4.2951   4.8408   5.3142   5.5469   6.1545   6.8958   8.1005   9.9057
     9.9468  14.6239

          k = 0.2497-0.1801-0.0423 (  3912 PWs)   bands (ev):

   -72.8825 -42.3099 -41.5268 -40.9631 -11.2700 -10.6439 -10.2246 -10.0222
     1.6126   1.7847   1.9377   2.5638   2.7895   3.0509   3.5731   3.8902
     4.1567   5.0759   5.3427   5.5770   6.1078   6.9868   8.0355   9.7211
    10.1864  13.8668

          k = 0.2495-0.1797 0.1449 (  3920 PWs)   bands (ev):

   -72.8826 -42.3099 -41.5268 -40.9631 -11.2881 -10.4730 -10.4030 -10.0041
     1.3878   1.9717   2.2612   2.5146   2.6645   2.8948   3.5555   3.9531
     4.4764   4.9067   5.1625   5.5939   6.1135   7.0879   7.9406   9.7077
    10.0815  14.5016

          k = 0.2501-0.1811-0.4169 (  3924 PWs)   bands (ev):

   -72.8826 -42.3099 -41.5268 -40.9631 -11.1580 -10.6481 -10.3401 -10.0389
     1.4730   1.8476   2.1044   2.4711   2.6720   3.1254   3.7077   4.0424
     4.3790   4.8956   5.1147   5.5361   6.1524   6.9827   8.0358   9.6625
    10.1188  14.7135

          k = 0.2499-0.1806-0.2296 (  3914 PWs)   bands (ev):

   -72.8825 -42.3100 -41.5268 -40.9631 -11.0641 -10.8652 -10.1942 -10.0528
     1.5724   1.7202   1.9724   2.5666   2.7542   3.1060   3.5141   4.1774
     4.2953   4.8398   5.3168   5.5456   6.1535   6.8953   8.1011   9.9049
     9.9491  14.6234

          k =-0.4999 0.1215 0.2773 (  3922 PWs)   bands (ev):

   -72.8802 -42.3069 -41.5212 -41.0022 -10.6362 -10.4350 -10.2879 -10.0839
     0.7145   1.2111   1.8407   2.2767   2.5965   3.4938   3.8911   4.2646
     4.5465   4.7602   4.8089   5.3330   5.9852   6.7993   7.9319   9.9978
    10.1077  15.3040

          k =-0.5001 0.1220 0.4646 (  3918 PWs)   bands (ev):

   -72.8801 -42.3069 -41.5212 -41.0022 -10.6798 -10.4525 -10.2727 -10.0442
     0.9177   1.2296   1.9704   2.3816   2.6028   3.4227   3.6774   4.2270
     4.4035   4.5184   4.9148   5.1677   5.9818   6.9670   7.9169   9.8064
    10.0732  15.8404

          k =-0.4995 0.1206-0.0973 (  3936 PWs)   bands (ev):

   -72.8801 -42.3068 -41.5212 -41.0022 -10.7163 -10.4728 -10.2563 -10.0100
     1.0799   1.3433   2.2081   2.4501   2.6614   3.1069   3.3980   4.1491
     4.3547   4.4910   4.9008   5.0357   5.9726   7.0953   7.9057   9.5918
    10.0882  16.0898

          k =-0.4997 0.2409 0.1810 (  3933 PWs)   bands (ev):

   -72.8802 -42.3069 -41.5212 -41.0022 -10.6362 -10.4353 -10.2875 -10.0841
     0.7808   1.1123   1.8477   2.2752   2.5800   3.6472   3.8614   4.1970
     4.5395   4.7490   4.8197   5.3273   5.9839   6.8025   7.9258  10.0106
    10.0845  15.6110

          k =-0.4998 0.2414 0.3683 (  3923 PWs)   bands (ev):

   -72.8802 -42.3069 -41.5212 -41.0022 -10.6797 -10.4554 -10.2699 -10.0442
     0.9027   1.2670   1.9644   2.2383   2.8038   3.3415   3.6749   4.2093
     4.4091   4.5192   4.9274   5.1760   5.9800   6.9723   7.9164   9.7950
    10.0861  15.6342

          k =-0.4993 0.2400-0.1936 (  3915 PWs)   bands (ev):

   -72.8801 -42.3068 -41.5212 -41.0022 -10.7187 -10.4674 -10.2610 -10.0081
     1.0958   1.3110   2.1776   2.5376   2.6989   3.0029   3.4703   4.1248
     4.2881   4.4857   4.8793   5.0998   5.9768   7.1005   7.9059   9.6006
    10.0804  16.0471

          k =-0.4995 0.2404-0.0063 (  3927 PWs)   bands (ev):

   -72.8802 -42.3069 -41.5212 -41.0022 -10.6792 -10.4546 -10.2708 -10.0446
     0.9024   1.2670   1.9618   2.2381   2.8033   3.3423   3.6757   4.2124
     4.4114   4.5188   4.9274   5.1746   5.9803   6.9715   7.9157   9.7951
    10.0864  15.6287

          k =-0.5003-0.1173 0.4699 (  3926 PWs)   bands (ev):

   -72.8802 -42.3069 -41.5212 -41.0022 -10.6365 -10.4342 -10.2886 -10.0837
     0.7159   1.2104   1.8391   2.2730   2.5915   3.4951   3.8972   4.2679
     4.5500   4.7586   4.8095   5.3321   5.9855   6.7994   7.9302   9.9946
    10.1094  15.2988

          k =-0.5005-0.1168 0.6572 (  3915 PWs)   bands (ev):

   -72.8801 -42.3069 -41.5212 -41.0022 -10.6805 -10.4527 -10.2724 -10.0435
     0.9198   1.2287   1.9698   2.3797   2.5987   3.4232   3.6789   4.2287
     4.4027   4.5213   4.9148   5.1683   5.9817   6.9680   7.9161   9.8047
    10.0735  15.8453

          k =-0.5000-0.1182 0.0954 (  3928 PWs)   bands (ev):

   -72.8801 -42.3069 -41.5212 -41.0022 -10.7174 -10.4736 -10.2552 -10.0090
     1.0831   1.3429   2.2075   2.4478   2.6586   3.1071   3.3988   4.1473
     4.3550   4.4912   4.9036   5.0359   5.9722   7.0971   7.9056   9.5893
    10.0883  16.0924

     the Fermi energy is     7.0482 ev

!    total energy              =    -520.62076310 Ry
     total all-electron energy =     -3720.874022 Ry
     estimated scf accuracy    <          7.6E-09 Ry
     smearing contrib. (-TS)   =      -0.00492861 Ry
     internal energy E=F+TS    =    -520.61583449 Ry

     The total energy is F=E-TS. E is the sum of the following terms:
     one-electron contribution =    -240.53650568 Ry
     hartree contribution      =     145.34461028 Ry
     xc contribution           =     -61.25030259 Ry
     ewald contribution        =    -185.67755339 Ry
     Hubbard energy            =       0.24474749 Ry
     one-center paw contrib.   =    -178.74083059 Ry

     convergence has been achieved in   8 iterations
     force_hub    :    142.41s CPU     17.28s WALL (       9 calls)
     dndtau       :    124.95s CPU     15.18s WALL (    6804 calls)
     dprojdtau    :     18.20s CPU      2.46s WALL (    6804 calls)
     calc_doverla :     66.09s CPU      8.10s WALL (    6804 calls)
     matel_dSdtau :     91.86s CPU     10.90s WALL (   13608 calls)

     Forces acting on atoms (cartesian axes, Ry/au):

     atom    1 type  1   force =     0.00048936    0.00026030    0.00006752
     atom    2 type  1   force =     0.00001070   -0.00115781    0.00037696
     atom    3 type  3   force =    -0.00021582    0.00033994    0.00044291
     atom    4 type  2   force =    -0.00036697   -0.00002853    0.00049268
     atom    5 type  2   force =     0.00023934   -0.00124063   -0.00065928
     atom    6 type  2   force =     0.00013337    0.00104113   -0.00057904
     atom    7 type  2   force =    -0.00028997    0.00078560   -0.00014176

     Total force =     0.002592     Total SCF correction =     0.000169


     Computing stress (Cartesian axis) and pressure

     stres_hub    :    408.86s CPU     46.41s WALL (       9 calls)
     dprojdepsilo :    328.47s CPU     37.51s WALL (    2916 calls)
     dprojdeps1   :     35.06s CPU      4.30s WALL (    2916 calls)
     dprojdeps2   :    181.64s CPU     21.02s WALL (    2916 calls)
     dprojdeps3   :    111.69s CPU     12.18s WALL (    2916 calls)
          total   stress  (Ry/bohr**3)                   (kbar)     P=        0.12
   0.00000929  -0.00000144   0.00000137            1.37       -0.21        0.20
  -0.00000144   0.00000174   0.00000039           -0.21        0.26        0.06
   0.00000137   0.00000039  -0.00000859            0.20        0.06       -1.26

     Energy error            =      2.6E-05 Ry
     Gradient error          =      1.2E-03 Ry/Bohr
     Cell gradient error     =      1.4E+00 kbar

     number of scf cycles    =   9
     number of bfgs steps    =   8

     enthalpy           old  =    -520.6207373116 Ry
     enthalpy           new  =    -520.6207630995 Ry

     CASE: enthalpy          _new < enthalpy          _old

     new trust radius        =       0.0041361505 bohr
     new conv_thr            =       0.0000000100 Ry

     new unit-cell volume =    487.56154 a.u.^3 (    72.24917 Ang^3 )
     density =      3.85075 g/cm^3

CELL_PARAMETERS (angstrom)
   2.959753777  -0.003643035   0.003163994
   1.493962659   6.180732910  -0.013017375
   2.959950401   3.176587261   3.943928071

ATOMIC_POSITIONS (angstrom)
Mg               3.4392895136        4.7931598214        1.4571678888
Mg               3.4356354675        1.1085678659        0.3399649844
Mn               4.9158204917        2.3275683519        2.5404158085
O                3.4490896565        6.8996278241        1.8189426195
O                4.9168861652        4.3073835356        2.8689805747
O                3.4377013637        2.7922402582        1.3690420585
O                4.9273316695        8.4004326324        3.9015136575



     Writing config-only to output data dir .\out\\qgan.save\ :
     XML data file
     NEW-OLD atomic charge density approx. for the potential
     New effective cutoffs (rho, wfc):  493.55   61.73

     Check: negative core charge=   -0.000002

     Atomic wfc used for Hubbard projectors are orthogonalized


     total cpu time spent up to now is      454.3 secs

     Self-consistent Calculation

     iteration #  1     ecut=    60.00 Ry     beta= 0.70
     Davidson diagonalization with overlap
     ethr =  1.00E-06,  avg # of iterations =  4.9

     =================== HUBBARD OCCUPATIONS ===================
     ------------------------ ATOM    3 ------------------------
     Tr[ns(  3)] =   5.23658
     eigenvalues:
       0.219  0.312  0.399  0.713  0.975
     eigenvectors (columns):
       0.540  0.001 -0.206  0.001 -0.816
      -0.001 -0.964  0.002  0.265 -0.002
      -0.802  0.001 -0.419 -0.001 -0.425
       0.255 -0.003 -0.884 -0.001  0.392
       0.001 -0.265  0.002 -0.964 -0.002
     occupation matrix ns (before diag.):
       0.730  0.001  0.278 -0.209  0.000
       0.001  0.340  0.000 -0.001 -0.103
       0.278  0.000  0.387 -0.059  0.001
      -0.209 -0.001 -0.059  0.476 -0.000
       0.000 -0.103  0.001 -0.000  0.685

     Number of occupied Hubbard levels =    5.2366

     Threshold (ethr) on eigenvalues was too large:
     Diagonalizing with lowered threshold

     Davidson diagonalization with overlap
     ethr =  9.07E-09,  avg # of iterations =  7.1

     total cpu time spent up to now is      460.5 secs

     total energy              =    -520.62077282 Ry
     estimated scf accuracy    <       0.00000523 Ry

     iteration #  2     ecut=    60.00 Ry     beta= 0.70
     Davidson diagonalization with overlap
     ethr =  1.22E-08,  avg # of iterations =  4.3

     total cpu time spent up to now is      463.0 secs

     total energy              =    -520.62077190 Ry
     estimated scf accuracy    <       0.00001147 Ry

     iteration #  3     ecut=    60.00 Ry     beta= 0.70
     Davidson diagonalization with overlap
     ethr =  1.22E-08,  avg # of iterations =  2.1

     total cpu time spent up to now is      465.2 secs

     total energy              =    -520.62077352 Ry
     estimated scf accuracy    <       0.00000521 Ry

     iteration #  4     ecut=    60.00 Ry     beta= 0.70
     Davidson diagonalization with overlap
     ethr =  1.21E-08,  avg # of iterations =  2.0

     total cpu time spent up to now is      467.3 secs

     total energy              =    -520.62077424 Ry
     estimated scf accuracy    <       0.00000419 Ry

     iteration #  5     ecut=    60.00 Ry     beta= 0.70
     Davidson diagonalization with overlap
     ethr =  9.74E-09,  avg # of iterations =  1.5

     total cpu time spent up to now is      469.5 secs

     total energy              =    -520.62077473 Ry
     estimated scf accuracy    <       0.00000015 Ry

     iteration #  6     ecut=    60.00 Ry     beta= 0.70
     Davidson diagonalization with overlap
     ethr =  3.38E-10,  avg # of iterations =  5.7

     total cpu time spent up to now is      472.3 secs

     total energy              =    -520.62077484 Ry
     estimated scf accuracy    <       0.00000009 Ry

     iteration #  7     ecut=    60.00 Ry     beta= 0.70
     Davidson diagonalization with overlap
     ethr =  2.06E-10,  avg # of iterations =  2.0

     total cpu time spent up to now is      474.5 secs

     total energy              =    -520.62077486 Ry
     estimated scf accuracy    <       0.00000001 Ry

     iteration #  8     ecut=    60.00 Ry     beta= 0.70
     Davidson diagonalization with overlap
     c_bands:  4 eigenvalues not converged
     ethr =  3.00E-11,  avg # of iterations = 13.5

     total cpu time spent up to now is      478.8 secs

     End of self-consistent calculation

     =================== HUBBARD OCCUPATIONS ===================
     ------------------------ ATOM    3 ------------------------
     Tr[ns(  3)] =   5.23664
     eigenvalues:
       0.219  0.312  0.399  0.713  0.975
     eigenvectors (columns):
       0.540  0.001  0.207  0.001 -0.816
      -0.001 -0.964 -0.002  0.265 -0.003
      -0.802  0.001  0.419 -0.001 -0.425
       0.255 -0.003  0.884 -0.001  0.392
       0.001 -0.265 -0.002 -0.964 -0.001
     occupation matrix ns (before diag.):
       0.731  0.002  0.278 -0.209  0.000
       0.002  0.340  0.000 -0.001 -0.103
       0.278  0.000  0.387 -0.059  0.001
      -0.209 -0.001 -0.059  0.476 -0.000
       0.000 -0.103  0.001 -0.000  0.685

     Number of occupied Hubbard levels =    5.2366

          k = 0.0000 0.0000 0.0000 (  3893 PWs)   bands (ev):

   -72.8850 -42.3125 -41.5318 -40.9232 -11.8808 -10.5543 -10.2822 -10.0518
     0.8157   1.5015   2.2334   2.7023   3.0718   3.9288   4.1037   4.3710
     4.6201   5.4155   5.6280   5.6820   6.0617   7.1421   8.0041  10.0755
    10.3465  11.7305

          k =-0.0002 0.0004 0.1873 (  3895 PWs)   bands (ev):

   -72.8849 -42.3125 -41.5318 -40.9232 -11.6853 -10.7094 -10.3499 -10.0913
     1.0112   1.7974   1.9843   3.0737   3.0817   3.8904   4.0244   4.4819
     4.5950   4.9583   5.5760   5.6073   5.7655   7.0993   8.1053   9.7865
    10.3884  12.8463

          k = 0.0004-0.0009-0.3746 (  3894 PWs)   bands (ev):

   -72.8848 -42.3126 -41.5319 -40.9232 -11.3578 -10.9821 -10.4192 -10.1453
     1.2711   1.8225   2.5126   3.0179   3.0699   3.4908   3.8839   4.5428
     4.5719   4.8372   5.4813   5.5284   5.6348   7.0558   8.1873   9.5459
    10.4310  14.4564

          k = 0.0002 0.1194-0.0963 (  3889 PWs)   bands (ev):

   -72.8850 -42.3125 -41.5318 -40.9232 -11.7761 -10.5803 -10.4190 -10.0351
     1.0389   1.5174   2.1925   2.8001   3.1068   3.9501   4.1123   4.3177
     4.6865   5.0206   5.4892   5.6341   6.0678   7.1662   7.9965  10.1388
    10.3866  12.5205

          k = 0.0001 0.1198 0.0910 (  3904 PWs)   bands (ev):

   -72.8850 -42.3125 -41.5318 -40.9232 -11.7289 -10.7915 -10.2432 -10.0463
     0.9479   1.7979   2.1030   2.8972   3.0394   3.8074   3.9291   4.4869
     4.6168   5.2215   5.5851   5.5890   5.8382   7.1364   8.1011   9.7907
    10.3474  12.4953

          k = 0.0006 0.1185-0.4710 (  3922 PWs)   bands (ev):

   -72.8849 -42.3126 -41.5319 -40.9232 -11.4060 -11.0631 -10.3200 -10.0880
     1.3059   1.6505   2.4245   3.0382   3.1613   3.5115   3.9112   4.3380
     4.5900   5.0774   5.4400   5.5054   5.6796   7.0922   8.2034   9.5541
    10.3900  13.8603

          k = 0.0004 0.1189-0.2837 (  3906 PWs)   bands (ev):

   -72.8849 -42.3125 -41.5319 -40.9232 -11.5334 -10.7879 -10.4807 -10.0759
     1.2348   1.7908   2.2185   2.9722   3.1065   3.8324   3.9082   4.4366
     4.5012   4.9006   5.4483   5.5548   5.7745   7.1263   8.1247   9.8635
    10.4283  14.0910

          k =-0.0005-0.2388 0.1927 (  3908 PWs)   bands (ev):

   -72.8849 -42.3125 -41.5319 -40.9232 -11.6428 -10.6755 -10.5111 -10.0214
     1.0195   1.8573   2.3984   2.8281   3.1443   3.6051   3.9752   4.2593
     4.5737   4.9930   5.4785   5.5854   6.0708   7.1904   7.9876  10.2065
    10.4261  13.8340

          k =-0.0007-0.2383 0.3800 (  3906 PWs)   bands (ev):

   -72.8849 -42.3125 -41.5318 -40.9232 -11.5904 -10.8614 -10.3672 -10.0333
     1.3334   1.7519   2.0009   2.9119   3.0701   3.8048   3.9509   4.4402
     4.7402   4.8806   5.4334   5.5370   5.8084   7.1616   8.1303   9.8727
    10.3876  13.4202

          k =-0.0001-0.2397-0.1819 (  3902 PWs)   bands (ev):

   -72.8850 -42.3126 -41.5318 -40.9232 -11.4466 -11.1339 -10.2252 -10.0444
     1.1516   1.8232   2.3082   3.0083   3.0398   3.7151   3.9403   4.1027
     4.6010   5.1823   5.4885   5.5576   5.7284   7.1269   8.1696   9.5418
    10.3489  13.7675

          k = 0.2499-0.0607-0.1387 (  3913 PWs)   bands (ev):

   -72.8820 -42.3094 -41.5262 -40.9626 -11.3230 -10.5814 -10.2128 -10.0309
     1.4043   1.6789   2.1265   2.4354   2.7761   3.0206   3.8420   4.0111
     4.2863   5.0116   5.2977   5.5186   6.1187   6.9835   8.0262   9.6946
    10.1061  13.9383

          k = 0.2497-0.0603 0.0486 (  3893 PWs)   bands (ev):

   -72.8820 -42.3094 -41.5262 -40.9626 -11.4210 -10.4544 -10.2595  -9.9974
     1.4227   1.8158   2.0496   2.4445   2.8277   2.8661   3.7138   3.9970
     4.2920   5.0298   5.3813   5.5678   6.0456   7.0729   7.9547   9.7606
    10.0820  13.5890

          k = 0.2503-0.0616-0.5133 (  3919 PWs)   bands (ev):

   -72.8821 -42.3094 -41.5262 -40.9626 -11.2278 -10.5504 -10.3434 -10.0513
     1.3253   1.6866   2.1991   2.5553   2.6749   3.0122   4.0042   4.1284
     4.3891   4.9216   5.0557   5.4852   6.1618   6.9732   8.0222   9.6495
    10.0367  14.7120

          k = 0.2501-0.0611-0.3260 (  3917 PWs)   bands (ev):

   -72.8821 -42.3095 -41.5262 -40.9626 -11.0450 -10.7609 -10.2930 -10.0906
     1.3383   1.6539   2.0927   2.4469   2.7348   3.3590   3.9222   4.2084
     4.3896   4.8543   5.0014   5.4706   6.1835   6.8967   8.0895   9.8100
     9.8649  15.1029

          k = 0.2502 0.0587-0.2350 (  3917 PWs)   bands (ev):

   -72.8821 -42.3094 -41.5262 -40.9626 -11.2285 -10.5502 -10.3425 -10.0515
     1.3255   1.6870   2.1996   2.5529   2.6754   3.0116   4.0021   4.1283
     4.3905   4.9238   5.0543   5.4858   6.1621   6.9746   8.0216   9.6506
    10.0352  14.7093

          k = 0.2500 0.0591-0.0477 (  3896 PWs)   bands (ev):

   -72.8820 -42.3094 -41.5262 -40.9626 -11.4215 -10.4543 -10.2589  -9.9974
     1.4228   1.8154   2.0498   2.4439   2.8243   2.8695   3.7135   3.9958
     4.2937   5.0273   5.3843   5.5683   6.0446   7.0734   7.9547   9.7605
    10.0821  13.5876

          k = 0.2506 0.0578-0.6096 (  3911 PWs)   bands (ev):

   -72.8820 -42.3094 -41.5262 -40.9626 -11.3229 -10.5808 -10.2134 -10.0310
     1.4032   1.6797   2.1262   2.4342   2.7795   3.0186   3.8427   4.0119
     4.2868   5.0101   5.2965   5.5197   6.1194   6.9834   8.0263   9.6926
    10.1070  13.9408

          k = 0.2504 0.0582-0.4223 (  3914 PWs)   bands (ev):

   -72.8821 -42.3095 -41.5262 -40.9626 -11.0450 -10.7603 -10.2934 -10.0909
     1.3383   1.6535   2.0923   2.4468   2.7348   3.3606   3.9240   4.2076
     4.3874   4.8537   5.0022   5.4713   6.1841   6.8971   8.0889   9.8104
     9.8633  15.1042

          k = 0.2494-0.2995 0.0540 (  3925 PWs)   bands (ev):

   -72.8821 -42.3094 -41.5262 -40.9626 -11.1576 -10.6486 -10.3410 -10.0366
     1.4727   1.8464   2.1065   2.4688   2.6745   3.1225   3.7106   4.0410
     4.3809   4.8960   5.1142   5.5399   6.1550   6.9845   8.0357   9.6650
    10.1179  14.7160

          k = 0.2492-0.2990 0.2413 (  3914 PWs)   bands (ev):

   -72.8821 -42.3094 -41.5262 -40.9626 -11.2890 -10.4726 -10.4036 -10.0015
     1.3877   1.9724   2.2611   2.5114   2.6649   2.8944   3.5553   3.9541
     4.4789   4.9097   5.1604   5.5978   6.1148   7.0891   7.9413   9.7093
    10.0833  14.4986

          k = 0.2498-0.3004-0.3206 (  3912 PWs)   bands (ev):

   -72.8820 -42.3094 -41.5262 -40.9626 -11.2711 -10.6442 -10.2240 -10.0198
     1.6114   1.7849   1.9373   2.5615   2.7905   3.0530   3.5736   3.8897
     4.1567   5.0742   5.3489   5.5784   6.1083   6.9877   8.0369   9.7210
    10.1900  13.8668

          k = 0.2496-0.2999-0.1333 (  3920 PWs)   bands (ev):

   -72.8820 -42.3095 -41.5262 -40.9626 -11.0640 -10.8658 -10.1948 -10.0505
     1.5712   1.7204   1.9717   2.5664   2.7550   3.1059   3.5171   4.1763
     4.2959   4.8409   5.3165   5.5486   6.1556   6.8968   8.1014   9.9081
     9.9478  14.6209

          k = 0.2497-0.1801-0.0423 (  3912 PWs)   bands (ev):

   -72.8820 -42.3094 -41.5262 -40.9626 -11.2703 -10.6447 -10.2245 -10.0199
     1.6118   1.7854   1.9367   2.5649   2.7894   3.0500   3.5735   3.8904
     4.1580   5.0754   5.3455   5.5793   6.1091   6.9877   8.0362   9.7226
    10.1882  13.8668

          k = 0.2495-0.1797 0.1450 (  3920 PWs)   bands (ev):

   -72.8821 -42.3094 -41.5262 -40.9626 -11.2882 -10.4730 -10.4042 -10.0015
     1.3872   1.9720   2.2622   2.5141   2.6646   2.8935   3.5541   3.9546
     4.4783   4.9087   5.1619   5.5973   6.1149   7.0885   7.9413   9.7090
    10.0835  14.5016

          k = 0.2501-0.1810-0.4170 (  3924 PWs)   bands (ev):

   -72.8821 -42.3094 -41.5262 -40.9626 -11.1579 -10.6490 -10.3406 -10.0362
     1.4722   1.8471   2.1061   2.4705   2.6725   3.1244   3.7077   4.0429
     4.3804   4.8971   5.1143   5.5391   6.1538   6.9834   8.0366   9.6643
    10.1202  14.7136

          k = 0.2499-0.1805-0.2296 (  3914 PWs)   bands (ev):

   -72.8820 -42.3095 -41.5262 -40.9626 -11.0639 -10.8664 -10.1943 -10.0504
     1.5718   1.7196   1.9726   2.5676   2.7543   3.1055   3.5150   4.1774
     4.2959   4.8401   5.3188   5.5474   6.1548   6.8963   8.1019   9.9074
     9.9498  14.6204

          k =-0.4999 0.1214 0.2774 (  3922 PWs)   bands (ev):

   -72.8797 -42.3064 -41.5206 -41.0017 -10.6367 -10.4369 -10.2844 -10.0840
     0.7146   1.2105   1.8411   2.2763   2.5949   3.4947   3.8922   4.2660
     4.5446   4.7639   4.8121   5.3329   5.9854   6.8003   7.9329   9.9996
    10.1093  15.3034

          k =-0.5001 0.1219 0.4647 (  3918 PWs)   bands (ev):

   -72.8797 -42.3064 -41.5206 -41.0017 -10.6803 -10.4540 -10.2696 -10.0442
     0.9176   1.2291   1.9713   2.3811   2.6016   3.4230   3.6772   4.2282
     4.4052   4.5196   4.9173   5.1689   5.9820   6.9677   7.9179   9.8092
    10.0738  15.8396

          k =-0.4995 0.1205-0.0972 (  3936 PWs)   bands (ev):

   -72.8796 -42.3063 -41.5206 -41.0017 -10.7169 -10.4740 -10.2534 -10.0100
     1.0795   1.3427   2.2093   2.4508   2.6589   3.1080   3.3960   4.1536
     4.3540   4.4912   4.9030   5.0382   5.9729   7.0959   7.9066   9.5946
    10.0889  16.0895

          k =-0.4996 0.2408 0.1810 (  3933 PWs)   bands (ev):

   -72.8797 -42.3064 -41.5206 -41.0017 -10.6366 -10.4373 -10.2839 -10.0842
     0.7810   1.1116   1.8481   2.2752   2.5791   3.6477   3.8612   4.1984
     4.5381   4.7520   4.8231   5.3275   5.9841   6.8036   7.9270  10.0127
    10.0857  15.6092

          k =-0.4998 0.2412 0.3683 (  3923 PWs)   bands (ev):

   -72.8797 -42.3064 -41.5206 -41.0017 -10.6801 -10.4568 -10.2669 -10.0443
     0.9026   1.2662   1.9652   2.2378   2.8027   3.3421   3.6744   4.2116
     4.4100   4.5203   4.9298   5.1773   5.9802   6.9729   7.9174   9.7978
    10.0869  15.6343

          k =-0.4992 0.2399-0.1936 (  3915 PWs)   bands (ev):

   -72.8796 -42.3063 -41.5206 -41.0017 -10.7192 -10.4686 -10.2582 -10.0082
     1.0950   1.3108   2.1783   2.5381   2.6970   3.0043   3.4678   4.1287
     4.2890   4.4856   4.8814   5.1019   5.9772   7.1010   7.9068   9.6037
    10.0810  16.0464

          k =-0.4994 0.2404-0.0063 (  3927 PWs)   bands (ev):

   -72.8797 -42.3064 -41.5206 -41.0017 -10.6796 -10.4562 -10.2676 -10.0447
     0.9024   1.2660   1.9630   2.2377   2.8024   3.3428   3.6751   4.2140
     4.4121   4.5200   4.9297   5.1760   5.9805   6.9723   7.9168   9.7978
    10.0871  15.6293

          k =-0.5004-0.1174 0.4701 (  3926 PWs)   bands (ev):

   -72.8797 -42.3064 -41.5206 -41.0017 -10.6369 -10.4363 -10.2849 -10.0838
     0.7160   1.2097   1.8397   2.2733   2.5906   3.4959   3.8973   4.2688
     4.5475   4.7626   4.8125   5.3322   5.9857   6.8005   7.9315   9.9967
    10.1108  15.2987

          k =-0.5006-0.1169 0.6574 (  3915 PWs)   bands (ev):

   -72.8796 -42.3064 -41.5206 -41.0017 -10.6809 -10.4542 -10.2693 -10.0436
     0.9195   1.2283   1.9707   2.3794   2.5980   3.4235   3.6785   4.2295
     4.4046   4.5220   4.9173   5.1695   5.9820   6.9686   7.9172   9.8077
    10.0741  15.8436

          k =-0.5000-0.1183 0.0955 (  3928 PWs)   bands (ev):

   -72.8796 -42.3063 -41.5206 -41.0017 -10.7178 -10.4746 -10.2526 -10.0091
     1.0823   1.3423   2.2088   2.4490   2.6562   3.1083   3.3967   4.1520
     4.3542   4.4914   4.9054   5.0385   5.9726   7.0975   7.9064   9.5925
    10.0890  16.0921

     the Fermi energy is     7.0490 ev

!    total energy              =    -520.62077488 Ry
     total all-electron energy =     -3720.874033 Ry
     estimated scf accuracy    <          7.0E-09 Ry
     smearing contrib. (-TS)   =      -0.00493206 Ry
     internal energy E=F+TS    =    -520.61584282 Ry

     The total energy is F=E-TS. E is the sum of the following terms:
     one-electron contribution =    -240.58351270 Ry
     hartree contribution      =     145.36902005 Ry
     xc contribution           =     -61.25058147 Ry
     ewald contribution        =    -185.65472619 Ry
     Hubbard energy            =       0.24478847 Ry
     one-center paw contrib.   =    -178.74083098 Ry

     convergence has been achieved in   8 iterations
     force_hub    :    160.31s CPU     19.15s WALL (      10 calls)
     dndtau       :    140.78s CPU     16.83s WALL (    7560 calls)
     dprojdtau    :     20.77s CPU      2.72s WALL (    7560 calls)
     calc_doverla :     75.17s CPU      8.99s WALL (    7560 calls)
     matel_dSdtau :    103.39s CPU     12.10s WALL (   15120 calls)

     Forces acting on atoms (cartesian axes, Ry/au):

     atom    1 type  1   force =     0.00040355   -0.00020724    0.00020983
     atom    2 type  1   force =     0.00001193   -0.00051516   -0.00013504
     atom    3 type  3   force =    -0.00013671    0.00079373    0.00005980
     atom    4 type  2   force =    -0.00033262   -0.00008752    0.00035742
     atom    5 type  2   force =     0.00021336   -0.00080043    0.00025203
     atom    6 type  2   force =     0.00007035    0.00032430   -0.00079429
     atom    7 type  2   force =    -0.00022986    0.00049232    0.00005025

     Total force =     0.001795     Total SCF correction =     0.000108


     Computing stress (Cartesian axis) and pressure

     stres_hub    :    454.44s CPU     51.73s WALL (      10 calls)
     dprojdepsilo :    366.03s CPU     41.83s WALL (    3240 calls)
     dprojdeps1   :     38.55s CPU      4.78s WALL (    3240 calls)
     dprojdeps2   :    202.78s CPU     23.44s WALL (    3240 calls)
     dprojdeps3   :    124.62s CPU     13.60s WALL (    3240 calls)
          total   stress  (Ry/bohr**3)                   (kbar)     P=        0.17
   0.00000894  -0.00000131   0.00000104            1.32       -0.19        0.15
  -0.00000131   0.00000334  -0.00000001           -0.19        0.49       -0.00
   0.00000104  -0.00000001  -0.00000885            0.15       -0.00       -1.30

     Energy error            =      1.2E-05 Ry
     Gradient error          =      8.0E-04 Ry/Bohr
     Cell gradient error     =      1.3E+00 kbar

     number of scf cycles    =  10
     number of bfgs steps    =   9

     enthalpy           old  =    -520.6207630995 Ry
     enthalpy           new  =    -520.6207748764 Ry

     CASE: enthalpy          _new < enthalpy          _old

     new trust radius        =       0.0036253707 bohr
     new conv_thr            =       0.0000000100 Ry

     new unit-cell volume =    487.53981 a.u.^3 (    72.24595 Ang^3 )
     density =      3.85092 g/cm^3

CELL_PARAMETERS (angstrom)
   2.960576486  -0.003981794   0.003474696
   1.493661307   6.181409019  -0.012354539
   2.960823207   3.177015379   3.942685560

ATOMIC_POSITIONS (angstrom)
Mg               3.4406151482        4.7940018334        1.4570467520
Mg               3.4365176741        1.1070832948        0.3411986126
Mn               4.9168832283        2.3282092244        2.5399433473
O                3.4488806113        6.9003675935        1.8199045745
O                4.9184206200        4.3060293608        2.8675738281
O                3.4386489694        2.7929866751        1.3682146185
O                4.9276822210        8.4024418687        3.9010639064



     Writing config-only to output data dir .\out\\qgan.save\ :
     XML data file
     NEW-OLD atomic charge density approx. for the potential
     New effective cutoffs (rho, wfc):  493.88   61.77

     Check: negative core charge=   -0.000002

     Atomic wfc used for Hubbard projectors are orthogonalized


     total cpu time spent up to now is      488.9 secs

     Self-consistent Calculation

     iteration #  1     ecut=    60.00 Ry     beta= 0.70
     Davidson diagonalization with overlap
     ethr =  1.00E-06,  avg # of iterations =  5.0

     =================== HUBBARD OCCUPATIONS ===================
     ------------------------ ATOM    3 ------------------------
     Tr[ns(  3)] =   5.23704
     eigenvalues:
       0.219  0.312  0.399  0.713  0.975
     eigenvectors (columns):
       0.539  0.001  0.207  0.001 -0.816
      -0.001 -0.964 -0.002  0.265 -0.003
      -0.803  0.001  0.419 -0.001 -0.424
       0.254 -0.004  0.884 -0.001  0.392
       0.001 -0.265 -0.002 -0.964 -0.002
     occupation matrix ns (before diag.):
       0.731  0.002  0.277 -0.209  0.000
       0.002  0.340  0.000 -0.001 -0.103
       0.277  0.000  0.387 -0.059  0.001
      -0.209 -0.001 -0.059  0.476 -0.000
       0.000 -0.103  0.001 -0.000  0.685

     Number of occupied Hubbard levels =    5.2370

     Threshold (ethr) on eigenvalues was too large:
     Diagonalizing with lowered threshold

     Davidson diagonalization with overlap
     ethr =  9.98E-09,  avg # of iterations =  4.7

     total cpu time spent up to now is      494.6 secs

     total energy              =    -520.62078180 Ry
     estimated scf accuracy    <       0.00000483 Ry

     iteration #  2     ecut=    60.00 Ry     beta= 0.70
     Davidson diagonalization with overlap
     ethr =  1.12E-08,  avg # of iterations =  2.1

     total cpu time spent up to now is      497.0 secs

     total energy              =    -520.62078090 Ry
     estimated scf accuracy    <       0.00000797 Ry

     iteration #  3     ecut=    60.00 Ry     beta= 0.70
     Davidson diagonalization with overlap
     ethr =  1.12E-08,  avg # of iterations =  2.0

     total cpu time spent up to now is      499.1 secs

     total energy              =    -520.62078160 Ry
     estimated scf accuracy    <       0.00001188 Ry

     iteration #  4     ecut=    60.00 Ry     beta= 0.70
     Davidson diagonalization with overlap
     ethr =  1.12E-08,  avg # of iterations =  2.0

     total cpu time spent up to now is      501.2 secs

     total energy              =    -520.62078302 Ry
     estimated scf accuracy    <       0.00000198 Ry

     iteration #  5     ecut=    60.00 Ry     beta= 0.70
     Davidson diagonalization with overlap
     ethr =  4.60E-09,  avg # of iterations =  1.1

     total cpu time spent up to now is      503.3 secs

     total energy              =    -520.62078329 Ry
     estimated scf accuracy    <       0.00000012 Ry

     iteration #  6     ecut=    60.00 Ry     beta= 0.70
     Davidson diagonalization with overlap
     ethr =  2.75E-10,  avg # of iterations =  7.1

     total cpu time spent up to now is      506.5 secs

     total energy              =    -520.62078341 Ry
     estimated scf accuracy    <       0.00000007 Ry

     iteration #  7     ecut=    60.00 Ry     beta= 0.70
     Davidson diagonalization with overlap
     ethr =  1.70E-10,  avg # of iterations =  2.3

     total cpu time spent up to now is      508.6 secs

     total energy              =    -520.62078344 Ry
     estimated scf accuracy    <       0.00000002 Ry

     iteration #  8     ecut=    60.00 Ry     beta= 0.70
     Davidson diagonalization with overlap
     ethr =  4.76E-11,  avg # of iterations =  6.6

     total cpu time spent up to now is      511.5 secs

     total energy              =    -520.62078345 Ry
     estimated scf accuracy    <       0.00000002 Ry

     iteration #  9     ecut=    60.00 Ry     beta= 0.70
     Davidson diagonalization with overlap
     ethr =  3.61E-11,  avg # of iterations =  1.7

     total cpu time spent up to now is      513.6 secs

     total energy              =    -520.62078343 Ry
     estimated scf accuracy    <       0.00000001 Ry

     iteration # 10     ecut=    60.00 Ry     beta= 0.70
     Davidson diagonalization with overlap
     ethr =  2.64E-11,  avg # of iterations =  4.5

     total cpu time spent up to now is      516.3 secs

     End of self-consistent calculation

     =================== HUBBARD OCCUPATIONS ===================
     ------------------------ ATOM    3 ------------------------
     Tr[ns(  3)] =   5.23657
     eigenvalues:
       0.219  0.312  0.399  0.713  0.975
     eigenvectors (columns):
       0.538  0.002  0.207  0.001 -0.817
      -0.001 -0.964 -0.002  0.265 -0.003
      -0.803  0.001  0.418 -0.001 -0.423
       0.254 -0.003  0.884 -0.001  0.392
       0.000 -0.265 -0.002 -0.964 -0.002
     occupation matrix ns (before diag.):
       0.732  0.002  0.277 -0.209  0.001
       0.002  0.340  0.001 -0.001 -0.102
       0.277  0.001  0.386 -0.059  0.001
      -0.209 -0.001 -0.059  0.476 -0.000
       0.001 -0.102  0.001 -0.000  0.685

     Number of occupied Hubbard levels =    5.2366

          k = 0.0000 0.0000 0.0000 (  3893 PWs)   bands (ev):

   -72.8848 -42.3119 -41.5320 -40.9230 -11.8806 -10.5536 -10.2820 -10.0506
     0.8160   1.5017   2.2361   2.7017   3.0724   3.9254   4.1041   4.3691
     4.6214   5.4180   5.6279   5.6820   6.0633   7.1422   8.0037  10.0775
    10.3459  11.7316

          k =-0.0002 0.0004 0.1874 (  3895 PWs)   bands (ev):

   -72.8848 -42.3120 -41.5320 -40.9230 -11.6847 -10.7088 -10.3506 -10.0895
     1.0120   1.7990   1.9845   3.0743   3.0820   3.8870   4.0245   4.4802
     4.5970   4.9603   5.5762   5.6070   5.7659   7.0995   8.1054   9.7882
    10.3878  12.8476

          k = 0.0004-0.0009-0.3748 (  3894 PWs)   bands (ev):

   -72.8847 -42.3120 -41.5320 -40.9230 -11.3557 -10.9828 -10.4207 -10.1429
     1.2712   1.8249   2.5159   3.0187   3.0704   3.4882   3.8806   4.5450
     4.5705   4.8366   5.4831   5.5277   5.6347   7.0560   8.1879   9.5472
    10.4305  14.4585

          k = 0.0003 0.1194-0.0964 (  3889 PWs)   bands (ev):

   -72.8848 -42.3119 -41.5320 -40.9230 -11.7756 -10.5796 -10.4191 -10.0338
     1.0395   1.5182   2.1942   2.7988   3.1075   3.9464   4.1143   4.3160
     4.6885   5.0210   5.4905   5.6340   6.0681   7.1664   7.9964  10.1411
    10.3860  12.5213

          k = 0.0001 0.1198 0.0910 (  3904 PWs)   bands (ev):

   -72.8848 -42.3120 -41.5320 -40.9230 -11.7287 -10.7905 -10.2438 -10.0445
     0.9487   1.7981   2.1061   2.8962   3.0399   3.8080   3.9256   4.4853
     4.6166   5.2234   5.5852   5.5886   5.8401   7.1366   8.1011   9.7929
    10.3469  12.4963

          k = 0.0007 0.1185-0.4712 (  3922 PWs)   bands (ev):

   -72.8848 -42.3120 -41.5320 -40.9230 -11.4051 -11.0627 -10.3213 -10.0859
     1.3068   1.6520   2.4279   3.0387   3.1598   3.5116   3.9078   4.3371
     4.5886   5.0791   5.4415   5.5047   5.6797   7.0925   8.2039   9.5562
    10.3895  13.8610

          k = 0.0005 0.1190-0.2838 (  3906 PWs)   bands (ev):

   -72.8847 -42.3120 -41.5320 -40.9230 -11.5322 -10.7879 -10.4812 -10.0743
     1.2358   1.7918   2.2201   2.9722   3.1072   3.8328   3.9047   4.4351
     4.5028   4.9009   5.4503   5.5544   5.7738   7.1265   8.1251   9.8654
    10.4278  14.0919

          k =-0.0005-0.2388 0.1928 (  3908 PWs)   bands (ev):

   -72.8848 -42.3119 -41.5320 -40.9230 -11.6419 -10.6756 -10.5108 -10.0202
     1.0202   1.8593   2.4002   2.8256   3.1450   3.6054   3.9712   4.2579
     4.5770   4.9939   5.4802   5.5853   6.0700   7.1907   7.9876  10.2090
    10.4256  13.8344

          k =-0.0008-0.2383 0.3802 (  3906 PWs)   bands (ev):

   -72.8848 -42.3120 -41.5320 -40.9230 -11.5899 -10.8605 -10.3678 -10.0318
     1.3351   1.7521   2.0034   2.9106   3.0707   3.8065   3.9473   4.4387
     4.7388   4.8824   5.4352   5.5366   5.8085   7.1619   8.1306   9.8752
    10.3870  13.4209

          k =-0.0001-0.2396-0.1820 (  3902 PWs)   bands (ev):

   -72.8848 -42.3120 -41.5320 -40.9230 -11.4467 -11.1325 -10.2265 -10.0421
     1.1529   1.8247   2.3115   3.0088   3.0387   3.7146   3.9368   4.1012
     4.5996   5.1832   5.4878   5.5583   5.7304   7.1273   8.1699   9.5445
    10.3484  13.7669

          k = 0.2499-0.0607-0.1388 (  3913 PWs)   bands (ev):

   -72.8819 -42.3089 -41.5264 -40.9623 -11.3227 -10.5810 -10.2120 -10.0314
     1.4039   1.6787   2.1275   2.4355   2.7783   3.0189   3.8415   4.0119
     4.2859   5.0121   5.3001   5.5192   6.1196   6.9839   8.0262   9.6950
    10.1072  13.9390

          k = 0.2497-0.0602 0.0486 (  3893 PWs)   bands (ev):

   -72.8819 -42.3089 -41.5264 -40.9623 -11.4210 -10.4540 -10.2582  -9.9980
     1.4222   1.8169   2.0481   2.4458   2.8272   2.8674   3.7137   3.9962
     4.2924   5.0296   5.3842   5.5692   6.0463   7.0734   7.9545   9.7611
    10.0830  13.5893

          k = 0.2503-0.0615-0.5136 (  3919 PWs)   bands (ev):

   -72.8819 -42.3089 -41.5264 -40.9623 -11.2270 -10.5505 -10.3431 -10.0511
     1.3245   1.6864   2.2014   2.5557   2.6750   3.0113   4.0044   4.1269
     4.3908   4.9241   5.0553   5.4863   6.1624   6.9736   8.0224   9.6504
    10.0375  14.7117

          k = 0.2501-0.0611-0.3262 (  3917 PWs)   bands (ev):

   -72.8819 -42.3089 -41.5264 -40.9623 -11.0430 -10.7621 -10.2934 -10.0902
     1.3370   1.6538   2.0951   2.4479   2.7341   3.3597   3.9227   4.2074
     4.3899   4.8562   5.0005   5.4719   6.1840   6.8971   8.0899   9.8121
     9.8644  15.1013

          k = 0.2502 0.0587-0.2352 (  3917 PWs)   bands (ev):

   -72.8819 -42.3089 -41.5264 -40.9623 -11.2276 -10.5504 -10.3424 -10.0513
     1.3248   1.6867   2.2019   2.5536   2.6755   3.0111   4.0027   4.1268
     4.3919   4.9259   5.0541   5.4867   6.1626   6.9747   8.0219   9.6511
    10.0365  14.7096

          k = 0.2499 0.0592-0.0478 (  3896 PWs)   bands (ev):

   -72.8819 -42.3089 -41.5264 -40.9623 -11.4214 -10.4540 -10.2578  -9.9979
     1.4222   1.8165   2.0482   2.4453   2.8245   2.8701   3.7135   3.9953
     4.2938   5.0276   5.3866   5.5697   6.0455   7.0738   7.9544   9.7611
    10.0831  13.5882

          k = 0.2506 0.0579-0.6100 (  3911 PWs)   bands (ev):

   -72.8819 -42.3089 -41.5264 -40.9623 -11.3227 -10.5805 -10.2124 -10.0314
     1.4029   1.6793   2.1272   2.4346   2.7811   3.0172   3.8421   4.0126
     4.2862   5.0110   5.2991   5.5202   6.1203   6.9838   8.0263   9.6937
    10.1077  13.9410

          k = 0.2504 0.0583-0.4226 (  3914 PWs)   bands (ev):

   -72.8819 -42.3089 -41.5264 -40.9623 -11.0430 -10.7616 -10.2937 -10.0904
     1.3370   1.6535   2.0948   2.4479   2.7341   3.3609   3.9243   4.2067
     4.3883   4.8557   5.0010   5.4725   6.1845   6.8975   8.0894   9.8123
     9.8633  15.1022

          k = 0.2493-0.2994 0.0540 (  3925 PWs)   bands (ev):

   -72.8819 -42.3089 -41.5264 -40.9623 -11.1567 -10.6487 -10.3412 -10.0363
     1.4722   1.8464   2.1089   2.4685   2.6750   3.1223   3.7097   4.0411
     4.3820   4.8975   5.1141   5.5408   6.1554   6.9849   8.0360   9.6658
    10.1195  14.7155

          k = 0.2491-0.2990 0.2414 (  3914 PWs)   bands (ev):

   -72.8819 -42.3089 -41.5264 -40.9623 -11.2883 -10.4720 -10.4039 -10.0014
     1.3871   1.9735   2.2628   2.5113   2.6656   2.8933   3.5535   3.9538
     4.4812   4.9114   5.1606   5.5987   6.1155   7.0893   7.9414   9.7097
    10.0850  14.4991

          k = 0.2498-0.3003-0.3208 (  3912 PWs)   bands (ev):

   -72.8819 -42.3089 -41.5264 -40.9623 -11.2708 -10.6436 -10.2237 -10.0200
     1.6112   1.7857   1.9369   2.5641   2.7904   3.0518   3.5728   3.8900
     4.1568   5.0742   5.3513   5.5791   6.1093   6.9881   8.0369   9.7222
    10.1908  13.8672

          k = 0.2495-0.2998-0.1334 (  3920 PWs)   bands (ev):

   -72.8819 -42.3090 -41.5264 -40.9623 -11.0632 -10.8660 -10.1945 -10.0504
     1.5711   1.7199   1.9731   2.5679   2.7554   3.1056   3.5165   4.1750
     4.2956   4.8421   5.3186   5.5487   6.1565   6.8972   8.1017   9.9102
     9.9481  14.6190

          k = 0.2496-0.1800-0.0424 (  3912 PWs)   bands (ev):

   -72.8819 -42.3089 -41.5264 -40.9623 -11.2701 -10.6440 -10.2241 -10.0201
     1.6116   1.7860   1.9365   2.5667   2.7896   3.0493   3.5728   3.8905
     4.1580   5.0749   5.3486   5.5798   6.1098   6.9882   8.0363   9.7232
    10.1897  13.8672

          k = 0.2494-0.1796 0.1450 (  3920 PWs)   bands (ev):

   -72.8819 -42.3089 -41.5264 -40.9623 -11.2878 -10.4723 -10.4043 -10.0014
     1.3867   1.9732   2.2636   2.5135   2.6652   2.8926   3.5524   3.9542
     4.4808   4.9105   5.1617   5.5983   6.1156   7.0889   7.9414   9.7095
    10.0852  14.5013

          k = 0.2500-0.1809-0.4172 (  3924 PWs)   bands (ev):

   -72.8819 -42.3089 -41.5264 -40.9623 -11.1570 -10.6489 -10.3409 -10.0360
     1.4716   1.8469   2.1086   2.4698   2.6735   3.1236   3.7074   4.0426
     4.3815   4.8984   5.1142   5.5401   6.1545   6.9839   8.0368   9.6654
    10.1212  14.7138

          k = 0.2498-0.1805-0.2298 (  3914 PWs)   bands (ev):

   -72.8819 -42.3090 -41.5264 -40.9623 -11.0631 -10.8664 -10.1942 -10.0503
     1.5715   1.7193   1.9739   2.5687   2.7549   3.1053   3.5148   4.1762
     4.2954   4.8416   5.3205   5.5477   6.1558   6.8969   8.1021   9.9097
     9.9495  14.6187

          k =-0.4998 0.1213 0.2775 (  3922 PWs)   bands (ev):

   -72.8795 -42.3059 -41.5208 -41.0013 -10.6352 -10.4382 -10.2807 -10.0882
     0.7144   1.2105   1.8419   2.2761   2.5931   3.4969   3.8947   4.2675
     4.5419   4.7671   4.8138   5.3337   5.9838   6.8008   7.9334  10.0006
    10.1100  15.3035

          k =-0.5000 0.1217 0.4649 (  3918 PWs)   bands (ev):

   -72.8795 -42.3058 -41.5208 -41.0013 -10.6794 -10.4551 -10.2661 -10.0479
     0.9173   1.2293   1.9725   2.3803   2.6007   3.4241   3.6781   4.2292
     4.4059   4.5206   4.9192   5.1701   5.9805   6.9682   7.9182   9.8120
    10.0727  15.8399

          k =-0.4993 0.1205-0.0972 (  3936 PWs)   bands (ev):

   -72.8795 -42.3058 -41.5208 -41.0013 -10.7164 -10.4749 -10.2500 -10.0134
     1.0795   1.3428   2.2117   2.4512   2.6564   3.1085   3.3956   4.1573
     4.3527   4.4917   4.9047   5.0403   5.9713   7.0965   7.9067   9.5973
    10.0877  16.0904

          k =-0.4995 0.2407 0.1811 (  3933 PWs)   bands (ev):

   -72.8795 -42.3059 -41.5208 -41.0013 -10.6352 -10.4387 -10.2800 -10.0885
     0.7806   1.1116   1.8490   2.2751   2.5786   3.6497   3.8620   4.2001
     4.5359   4.7545   4.8249   5.3285   5.9825   6.8040   7.9276  10.0144
    10.0859  15.6086

          k =-0.4997 0.2411 0.3685 (  3923 PWs)   bands (ev):

   -72.8795 -42.3058 -41.5208 -41.0013 -10.6791 -10.4577 -10.2636 -10.0481
     0.9023   1.2662   1.9663   2.2374   2.8023   3.3433   3.6749   4.2134
     4.4103   4.5212   4.9315   5.1784   5.9787   6.9733   7.9177   9.8006
    10.0860  15.6347

          k =-0.4990 0.2398-0.1936 (  3915 PWs)   bands (ev):

   -72.8795 -42.3058 -41.5208 -41.0013 -10.7187 -10.4693 -10.2550 -10.0115
     1.0945   1.3113   2.1802   2.5381   2.6955   3.0054   3.4670   4.1322
     4.2885   4.4856   4.8833   5.1035   5.9756   7.1014   7.9069   9.6067
    10.0798  16.0466

          k =-0.4993 0.2403-0.0063 (  3927 PWs)   bands (ev):

   -72.8795 -42.3058 -41.5208 -41.0013 -10.6788 -10.4573 -10.2640 -10.0485
     0.9022   1.2660   1.9645   2.2374   2.8021   3.3438   3.6756   4.2150
     4.4121   4.5212   4.9313   5.1775   5.9789   6.9728   7.9172   9.8006
    10.0860  15.6305

          k =-0.5003-0.1174 0.4703 (  3926 PWs)   bands (ev):

   -72.8795 -42.3059 -41.5208 -41.0013 -10.6354 -10.4378 -10.2810 -10.0881
     0.7155   1.2097   1.8408   2.2740   2.5897   3.4979   3.8985   4.2695
     4.5441   4.7663   4.8141   5.3331   5.9840   6.8010   7.9323   9.9985
    10.1110  15.2994

          k =-0.5005-0.1170 0.6577 (  3915 PWs)   bands (ev):

   -72.8795 -42.3058 -41.5208 -41.0013 -10.6799 -10.4551 -10.2659 -10.0475
     0.9189   1.2286   1.9720   2.3790   2.5979   3.4246   3.6792   4.2300
     4.4055   4.5224   4.9192   5.1706   5.9804   6.9689   7.9176   9.8108
    10.0729  15.8428

          k =-0.4999-0.1183 0.0956 (  3928 PWs)   bands (ev):

   -72.8795 -42.3058 -41.5208 -41.0013 -10.7172 -10.4753 -10.2494 -10.0127
     1.0817   1.3425   2.2113   2.4498   2.6540   3.1090   3.3961   4.1561
     4.3526   4.4919   4.9066   5.0407   5.9711   7.0977   7.9066   9.5956
    10.0879  16.0929

     the Fermi energy is     7.0493 ev

!    total energy              =    -520.62078348 Ry
     total all-electron energy =     -3720.874042 Ry
     estimated scf accuracy    <          6.7E-09 Ry
     smearing contrib. (-TS)   =      -0.00493373 Ry
     internal energy E=F+TS    =    -520.61584975 Ry

     The total energy is F=E-TS. E is the sum of the following terms:
     one-electron contribution =    -240.58862574 Ry
     hartree contribution      =     145.37238715 Ry
     xc contribution           =     -61.25074317 Ry
     ewald contribution        =    -185.65281959 Ry
     Hubbard energy            =       0.24481494 Ry
     one-center paw contrib.   =    -178.74086334 Ry

     convergence has been achieved in  10 iterations
     force_hub    :    177.55s CPU     21.00s WALL (      11 calls)
     dndtau       :    155.75s CPU     18.45s WALL (    8316 calls)
     dprojdtau    :     23.61s CPU      2.97s WALL (    8316 calls)
     calc_doverla :     82.25s CPU      9.87s WALL (    8316 calls)
     matel_dSdtau :    113.91s CPU     13.25s WALL (   16632 calls)

     Forces acting on atoms (cartesian axes, Ry/au):

     atom    1 type  1   force =     0.00028917   -0.00038056    0.00020946
     atom    2 type  1   force =     0.00001416   -0.00002966   -0.00016290
     atom    3 type  3   force =    -0.00006213    0.00075017   -0.00039166
     atom    4 type  2   force =    -0.00027336    0.00005151    0.00030046
     atom    5 type  2   force =     0.00016854   -0.00027059    0.00078240
     atom    6 type  2   force =     0.00001140   -0.00030059   -0.00089098
     atom    7 type  2   force =    -0.00014778    0.00017973    0.00015322

     Total force =     0.001692     Total SCF correction =     0.000063


     Computing stress (Cartesian axis) and pressure

     stres_hub    :    500.22s CPU     56.92s WALL (      11 calls)
     dprojdepsilo :    403.05s CPU     46.04s WALL (    3564 calls)
     dprojdeps1   :     42.70s CPU      5.25s WALL (    3564 calls)
     dprojdeps2   :    223.20s CPU     25.83s WALL (    3564 calls)
     dprojdeps3   :    137.06s CPU     14.95s WALL (    3564 calls)
          total   stress  (Ry/bohr**3)                   (kbar)     P=        0.32
   0.00000597  -0.00000115   0.00000072            0.88       -0.17        0.11
  -0.00000115   0.00000521  -0.00000067           -0.17        0.77       -0.10
   0.00000072  -0.00000067  -0.00000461            0.11       -0.10       -0.68

     Energy error            =      8.6E-06 Ry
     Gradient error          =      8.9E-04 Ry/Bohr
     Cell gradient error     =      8.8E-01 kbar

     number of scf cycles    =  11
     number of bfgs steps    =  10

     enthalpy           old  =    -520.6207748764 Ry
     enthalpy           new  =    -520.6207834810 Ry

     CASE: enthalpy          _new < enthalpy          _old

     new trust radius        =       0.0028599713 bohr
     new conv_thr            =       0.0000000100 Ry

     new unit-cell volume =    487.60310 a.u.^3 (    72.25532 Ang^3 )
     density =      3.85042 g/cm^3

CELL_PARAMETERS (angstrom)
   2.961736677  -0.004370976   0.003798785
   1.493422789   6.182830399  -0.011981018
   2.961995486   3.177603191   3.941052943

ATOMIC_POSITIONS (angstrom)
Mg               3.4423393529        4.7947536815        1.4565510714
Mg               3.4377786185        1.1060905540        0.3418747099
Mn               4.9184872284        2.3290960979        2.5389881975
O                3.4488594002        6.9019875750        1.8207333061
O                4.9205103780        4.3051915465        2.8664642721
O                3.4399176045        2.7935413958        1.3667620473
O                4.9284316720        8.4052586141        3.9002384248



     Writing config-only to output data dir .\out\\qgan.save\ :
     XML data file
     NEW-OLD atomic charge density approx. for the potential
     New effective cutoffs (rho, wfc):  494.28   61.81

     Check: negative core charge=   -0.000002

     Atomic wfc used for Hubbard projectors are orthogonalized


     total cpu time spent up to now is      526.2 secs

     Self-consistent Calculation

     iteration #  1     ecut=    60.00 Ry     beta= 0.70
     Davidson diagonalization with overlap
     ethr =  1.00E-06,  avg # of iterations =  5.3

     =================== HUBBARD OCCUPATIONS ===================
     ------------------------ ATOM    3 ------------------------
     Tr[ns(  3)] =   5.23684
     eigenvalues:
       0.219  0.312  0.399  0.713  0.975
     eigenvectors (columns):
       0.538  0.002  0.207  0.001 -0.817
      -0.001 -0.964 -0.002  0.265 -0.003
      -0.804  0.001  0.418 -0.001 -0.423
       0.254 -0.004  0.884 -0.002  0.392
       0.000 -0.265 -0.002 -0.964 -0.002
     occupation matrix ns (before diag.):
       0.732  0.002  0.277 -0.209  0.001
       0.002  0.340  0.001 -0.001 -0.102
       0.277  0.001  0.386 -0.059  0.001
      -0.209 -0.001 -0.059  0.476 -0.000
       0.001 -0.102  0.001 -0.000  0.685

     Number of occupied Hubbard levels =    5.2368

     Threshold (ethr) on eigenvalues was too large:
     Diagonalizing with lowered threshold

     Davidson diagonalization with overlap
     ethr =  9.76E-09,  avg # of iterations =  6.3

     total cpu time spent up to now is      532.1 secs

     total energy              =    -520.62078837 Ry
     estimated scf accuracy    <       0.00000508 Ry

     iteration #  2     ecut=    60.00 Ry     beta= 0.70
     Davidson diagonalization with overlap
     ethr =  1.18E-08,  avg # of iterations =  2.2

     total cpu time spent up to now is      534.4 secs

     total energy              =    -520.62078749 Ry
     estimated scf accuracy    <       0.00000704 Ry

     iteration #  3     ecut=    60.00 Ry     beta= 0.70
     Davidson diagonalization with overlap
     ethr =  1.18E-08,  avg # of iterations =  2.0

     total cpu time spent up to now is      536.5 secs

     total energy              =    -520.62078805 Ry
     estimated scf accuracy    <       0.00001153 Ry

     iteration #  4     ecut=    60.00 Ry     beta= 0.70
     Davidson diagonalization with overlap
     ethr =  1.18E-08,  avg # of iterations =  2.0

     total cpu time spent up to now is      538.7 secs

     total energy              =    -520.62078944 Ry
     estimated scf accuracy    <       0.00000256 Ry

     iteration #  5     ecut=    60.00 Ry     beta= 0.70
     Davidson diagonalization with overlap
     ethr =  5.96E-09,  avg # of iterations =  1.2

     total cpu time spent up to now is      540.8 secs

     total energy              =    -520.62078976 Ry
     estimated scf accuracy    <       0.00000015 Ry

     iteration #  6     ecut=    60.00 Ry     beta= 0.70
     Davidson diagonalization with overlap
     ethr =  3.41E-10,  avg # of iterations =  7.1

     total cpu time spent up to now is      544.0 secs

     total energy              =    -520.62078990 Ry
     estimated scf accuracy    <       0.00000007 Ry

     iteration #  7     ecut=    60.00 Ry     beta= 0.70
     Davidson diagonalization with overlap
     ethr =  1.63E-10,  avg # of iterations =  2.5

     total cpu time spent up to now is      546.3 secs

     total energy              =    -520.62078993 Ry
     estimated scf accuracy    <       0.00000003 Ry

     iteration #  8     ecut=    60.00 Ry     beta= 0.70
     Davidson diagonalization with overlap
     ethr =  7.36E-11,  avg # of iterations =  2.8

     total cpu time spent up to now is      548.6 secs

     total energy              =    -520.62078994 Ry
     estimated scf accuracy    <       0.00000002 Ry

     iteration #  9     ecut=    60.00 Ry     beta= 0.70
     Davidson diagonalization with overlap
     ethr =  4.11E-11,  avg # of iterations =  3.1

     total cpu time spent up to now is      550.8 secs

     total energy              =    -520.62078992 Ry
     estimated scf accuracy    <       0.00000001 Ry

     iteration # 10     ecut=    60.00 Ry     beta= 0.70
     Davidson diagonalization with overlap
     ethr =  3.21E-11,  avg # of iterations =  4.8

     total cpu time spent up to now is      553.5 secs

     End of self-consistent calculation

     =================== HUBBARD OCCUPATIONS ===================
     ------------------------ ATOM    3 ------------------------
     Tr[ns(  3)] =   5.23650
     eigenvalues:
       0.219  0.312  0.399  0.713  0.976
     eigenvectors (columns):
       0.537 -0.002 -0.207  0.000 -0.818
      -0.001  0.964  0.002  0.264 -0.003
      -0.805 -0.001 -0.418 -0.001 -0.422
       0.254  0.003 -0.885 -0.002  0.391
      -0.000  0.264  0.002 -0.964 -0.002
     occupation matrix ns (before diag.):
       0.733  0.002  0.277 -0.209  0.001
       0.002  0.340  0.001 -0.001 -0.102
       0.277  0.001  0.385 -0.058  0.001
      -0.209 -0.001 -0.058  0.476  0.000
       0.001 -0.102  0.001  0.000  0.685

     Number of occupied Hubbard levels =    5.2365

          k = 0.0000 0.0000 0.0000 (  3893 PWs)   bands (ev):

   -72.8870 -42.3137 -41.5345 -40.9251 -11.8811 -10.5533 -10.2828 -10.0528
     0.8161   1.4998   2.2378   2.7005   3.0720   3.9199   4.1021   4.3654
     4.6222   5.4179   5.6255   5.6781   6.0620   7.1401   8.0006  10.0767
    10.3419  11.7296

          k =-0.0002 0.0004 0.1875 (  3895 PWs)   bands (ev):

   -72.8869 -42.3137 -41.5345 -40.9251 -11.6848 -10.7087 -10.3524 -10.0911
     1.0126   1.7994   1.9828   3.0739   3.0814   3.8816   4.0232   4.4768
     4.5973   4.9609   5.5732   5.6027   5.7637   7.0975   8.1028   9.7870
    10.3837  12.8459

          k = 0.0005-0.0008-0.3750 (  3894 PWs)   bands (ev):

   -72.8868 -42.3138 -41.5345 -40.9251 -11.3548 -10.9834 -10.4233 -10.1441
     1.2711   1.8262   2.5172   3.0175   3.0700   3.4849   3.8753   4.5464
     4.5672   4.8342   5.4816   5.5228   5.6319   7.0541   8.1856   9.5456
    10.4263  14.4580

          k = 0.0003 0.1194-0.0965 (  3889 PWs)   bands (ev):

   -72.8869 -42.3137 -41.5345 -40.9251 -11.7760 -10.5797 -10.4198 -10.0359
     1.0396   1.5174   2.1949   2.7967   3.1072   3.9407   4.1145   4.3124
     4.6888   5.0203   5.4883   5.6301   6.0659   7.1644   7.9936  10.1407
    10.3819  12.5192

          k = 0.0001 0.1198 0.0910 (  3904 PWs)   bands (ev):

   -72.8870 -42.3138 -41.5345 -40.9251 -11.7292 -10.7901 -10.2455 -10.0460
     0.9495   1.7974   2.1071   2.8943   3.0395   3.8071   3.9201   4.4819
     4.6151   5.2217   5.5833   5.5843   5.8397   7.1346   8.0985   9.7923
    10.3429  12.4943

          k = 0.0008 0.1185-0.4714 (  3922 PWs)   bands (ev):

   -72.8869 -42.3138 -41.5345 -40.9251 -11.4050 -11.0627 -10.3236 -10.0871
     1.3075   1.6530   2.4294   3.0383   3.1563   3.5104   3.9024   4.3344
     4.5854   5.0792   5.4401   5.4999   5.6773   7.0906   8.2017   9.5552
    10.3854  13.8582

          k = 0.0005 0.1189-0.2839 (  3906 PWs)   bands (ev):

   -72.8869 -42.3138 -41.5345 -40.9251 -11.5320 -10.7883 -10.4826 -10.0761
     1.2363   1.7913   2.2205   2.9710   3.1068   3.8321   3.8991   4.4317
     4.5030   4.8996   5.4489   5.5500   5.7706   7.1246   8.1227   9.8645
    10.4236  14.0901

          k =-0.0006-0.2387 0.1929 (  3908 PWs)   bands (ev):

   -72.8869 -42.3137 -41.5345 -40.9251 -11.6420 -10.6770 -10.5105 -10.0223
     1.0197   1.8604   2.4009   2.8225   3.1448   3.6045   3.9652   4.2546
     4.5784   4.9930   5.4785   5.5813   6.0671   7.1887   7.9850  10.2090
    10.4214  13.8321

          k =-0.0008-0.2383 0.3804 (  3906 PWs)   bands (ev):

   -72.8869 -42.3138 -41.5345 -40.9251 -11.5902 -10.8602 -10.3693 -10.0336
     1.3363   1.7510   2.0046   2.9083   3.0703   3.8066   3.9417   4.4354
     4.7357   4.8818   5.4340   5.5322   5.8064   7.1600   8.1284   9.8749
    10.3829  13.4187

          k =-0.0001-0.2395-0.1821 (  3902 PWs)   bands (ev):

   -72.8870 -42.3138 -41.5345 -40.9251 -11.4474 -11.1318 -10.2287 -10.0432
     1.1540   1.8261   2.3134   3.0083   3.0351   3.7123   3.9314   4.0981
     4.5964   5.1813   5.4831   5.5567   5.7304   7.1254   8.1676   9.5443
    10.3443  13.7629

          k = 0.2498-0.0606-0.1389 (  3913 PWs)   bands (ev):

   -72.8841 -42.3107 -41.5289 -40.9642 -11.3234 -10.5812 -10.2126 -10.0349
     1.4032   1.6770   2.1274   2.4343   2.7791   3.0163   3.8389   4.0108
     4.2835   5.0112   5.3004   5.5163   6.1181   6.9818   8.0235   9.6924
    10.1050  13.9374

          k = 0.2495-0.0602 0.0486 (  3893 PWs)   bands (ev):

   -72.8841 -42.3107 -41.5289 -40.9642 -11.4219 -10.4541 -10.2585 -10.0015
     1.4213   1.8160   2.0459   2.4457   2.8259   2.8674   3.7121   3.9926
     4.2911   5.0283   5.3851   5.5667   6.0444   7.0714   7.9515   9.7587
    10.0808  13.5867

          k = 0.2503-0.0614-0.5139 (  3919 PWs)   bands (ev):

   -72.8841 -42.3107 -41.5289 -40.9642 -11.2274 -10.5509 -10.3443 -10.0542
     1.3233   1.6849   2.2019   2.5548   2.6741   3.0097   4.0021   4.1240
     4.3906   4.9243   5.0540   5.4834   6.1605   6.9712   8.0198   9.6481
    10.0354  14.7088

          k = 0.2500-0.0610-0.3264 (  3917 PWs)   bands (ev):

   -72.8841 -42.3107 -41.5289 -40.9642 -11.0423 -10.7633 -10.2950 -10.0930
     1.3353   1.6527   2.0957   2.4475   2.7326   3.3592   3.9213   4.2044
     4.3879   4.8562   4.9990   5.4692   6.1823   6.8948   8.0874   9.8111
     9.8608  15.0983

          k = 0.2501 0.0587-0.2353 (  3917 PWs)   bands (ev):

   -72.8841 -42.3107 -41.5289 -40.9642 -11.2277 -10.5509 -10.3438 -10.0544
     1.3236   1.6851   2.2023   2.5531   2.6745   3.0097   4.0008   4.1239
     4.3913   4.9257   5.0532   5.4835   6.1607   6.9723   8.0193   9.6487
    10.0347  14.7073

          k = 0.2498 0.0592-0.0478 (  3896 PWs)   bands (ev):

   -72.8841 -42.3107 -41.5289 -40.9642 -11.4222 -10.4541 -10.2582 -10.0015
     1.4213   1.8157   2.0460   2.4454   2.8239   2.8694   3.7120   3.9920
     4.2920   5.0269   5.3868   5.5671   6.0438   7.0717   7.9514   9.7587
    10.0808  13.5860

          k = 0.2506 0.0579-0.6103 (  3911 PWs)   bands (ev):

   -72.8841 -42.3107 -41.5289 -40.9642 -11.3234 -10.5808 -10.2129 -10.0349
     1.4025   1.6774   2.1271   2.4336   2.7812   3.0150   3.8392   4.0115
     4.2837   5.0104   5.2995   5.5171   6.1186   6.9816   8.0236   9.6914
    10.1054  13.9387

          k = 0.2503 0.0583-0.4228 (  3914 PWs)   bands (ev):

   -72.8841 -42.3107 -41.5289 -40.9642 -11.0424 -10.7630 -10.2952 -10.0932
     1.3353   1.6525   2.0955   2.4476   2.7324   3.3600   3.9226   4.2038
     4.3868   4.8559   4.9992   5.4697   6.1827   6.8951   8.0870   9.8114
     9.8600  15.0989

          k = 0.2492-0.2993 0.0540 (  3925 PWs)   bands (ev):

   -72.8841 -42.3107 -41.5289 -40.9642 -11.1570 -10.6493 -10.3423 -10.0393
     1.4709   1.8453   2.1098   2.4669   2.6741   3.1212   3.7075   4.0392
     4.3806   4.8970   5.1123   5.5377   6.1534   6.9826   8.0337   9.6636
    10.1181  14.7122

          k = 0.2489-0.2989 0.2415 (  3914 PWs)   bands (ev):

   -72.8841 -42.3107 -41.5289 -40.9642 -11.2888 -10.4727 -10.4046 -10.0045
     1.3854   1.9734   2.2630   2.5101   2.6651   2.8913   3.5507   3.9511
     4.4812   4.9110   5.1594   5.5956   6.1135   7.0870   7.9387   9.7072
    10.0838  14.4967

          k = 0.2497-0.3002-0.3209 (  3912 PWs)   bands (ev):

   -72.8841 -42.3107 -41.5289 -40.9642 -11.2716 -10.6437 -10.2246 -10.0233
     1.6105   1.7849   1.9358   2.5650   2.7890   3.0496   3.5703   3.8888
     4.1544   5.0722   5.3514   5.5763   6.1078   6.9861   8.0344   9.7201
    10.1887  13.8652

          k = 0.2494-0.2997-0.1334 (  3920 PWs)   bands (ev):

   -72.8840 -42.3107 -41.5289 -40.9642 -11.0635 -10.8666 -10.1955 -10.0535
     1.5704   1.7185   1.9737   2.5676   2.7542   3.1043   3.5135   4.1719
     4.2932   4.8418   5.3183   5.5456   6.1549   6.8952   8.0995   9.9091
     9.9451  14.6159

          k = 0.2495-0.1800-0.0424 (  3912 PWs)   bands (ev):

   -72.8841 -42.3107 -41.5289 -40.9642 -11.2711 -10.6441 -10.2248 -10.0233
     1.6109   1.7852   1.9357   2.5668   2.7884   3.0478   3.5703   3.8889
     4.1554   5.0726   5.3496   5.5768   6.1081   6.9862   8.0339   9.7208
    10.1880  13.8651

          k = 0.2492-0.1795 0.1451 (  3920 PWs)   bands (ev):

   -72.8841 -42.3107 -41.5289 -40.9642 -11.2884 -10.4729 -10.4048 -10.0045
     1.3852   1.9732   2.2635   2.5119   2.6647   2.8909   3.5500   3.9515
     4.4809   4.9104   5.1601   5.5953   6.1136   7.0867   7.9388   9.7070
    10.0839  14.4981

          k = 0.2500-0.1808-0.4174 (  3924 PWs)   bands (ev):

   -72.8841 -42.3107 -41.5289 -40.9642 -11.1572 -10.6494 -10.3421 -10.0391
     1.4702   1.8457   2.1096   2.4679   2.6732   3.1221   3.7059   4.0404
     4.3801   4.8977   5.1126   5.5373   6.1528   6.9817   8.0344   9.6632
    10.1193  14.7113

          k = 0.2497-0.1804-0.2299 (  3914 PWs)   bands (ev):

   -72.8840 -42.3107 -41.5289 -40.9642 -11.0635 -10.8669 -10.1952 -10.0534
     1.5707   1.7181   1.9741   2.5681   2.7540   3.1042   3.5123   4.1729
     4.2929   4.8414   5.3197   5.5448   6.1544   6.8949   8.0998   9.9088
     9.9461  14.6157

          k =-0.4996 0.1212 0.2777 (  3922 PWs)   bands (ev):

   -72.8817 -42.3077 -41.5233 -41.0030 -10.6349 -10.4397 -10.2799 -10.0948
     0.7128   1.2100   1.8415   2.2746   2.5898   3.4979   3.8964   4.2674
     4.5384   4.7670   4.8123   5.3329   5.9794   6.7985   7.9313   9.9986
    10.1073  15.3012

          k =-0.4998 0.1216 0.4652 (  3918 PWs)   bands (ev):

   -72.8817 -42.3077 -41.5233 -41.0030 -10.6798 -10.4564 -10.2653 -10.0538
     0.9159   1.2291   1.9722   2.3782   2.5987   3.4241   3.6780   4.2287
     4.4045   4.5195   4.9185   5.1688   5.9760   6.9662   7.9159   9.8121
    10.0678  15.8385

          k =-0.4991 0.1204-0.0972 (  3936 PWs)   bands (ev):

   -72.8817 -42.3076 -41.5233 -41.0030 -10.7173 -10.4763 -10.2490 -10.0189
     1.0787   1.3424   2.2127   2.4496   2.6530   3.1070   3.3953   4.1579
     4.3503   4.4908   4.9035   5.0398   5.9669   7.0947   7.9041   9.5972
    10.0827  16.0890

          k =-0.4993 0.2406 0.1813 (  3933 PWs)   bands (ev):

   -72.8817 -42.3077 -41.5233 -41.0030 -10.6348 -10.4402 -10.2791 -10.0951
     0.7787   1.1113   1.8488   2.2735   2.5769   3.6506   3.8616   4.2004
     4.5324   4.7541   4.8234   5.3280   5.9781   6.8018   7.9257  10.0128
    10.0829  15.6065

          k =-0.4995 0.2410 0.3688 (  3923 PWs)   bands (ev):

   -72.8817 -42.3077 -41.5233 -41.0030 -10.6794 -10.4590 -10.2628 -10.0542
     0.9007   1.2659   1.9657   2.2358   2.8006   3.3430   3.6747   4.2133
     4.4089   4.5202   4.9303   5.1772   5.9743   6.9712   7.9154   9.8006
    10.0813  15.6323

          k =-0.4988 0.2397-0.1937 (  3915 PWs)   bands (ev):

   -72.8817 -42.3076 -41.5233 -41.0030 -10.7195 -10.4705 -10.2543 -10.0171
     1.0932   1.3112   2.1807   2.5366   2.6929   3.0043   3.4663   4.1331
     4.2862   4.4844   4.8827   5.1023   5.9712   7.0995   7.9043   9.6070
    10.0748  16.0447

          k =-0.4990 0.2401-0.0062 (  3927 PWs)   bands (ev):

   -72.8817 -42.3077 -41.5233 -41.0030 -10.6791 -10.4587 -10.2630 -10.0545
     0.9009   1.2656   1.9644   2.2358   2.8006   3.3434   3.6752   4.2140
     4.4103   4.5203   4.9301   5.1765   5.9745   6.9709   7.9151   9.8005
    10.0813  15.6292

          k =-0.5002-0.1175 0.4707 (  3926 PWs)   bands (ev):

   -72.8817 -42.3077 -41.5233 -41.0030 -10.6351 -10.4394 -10.2800 -10.0947
     0.7138   1.2092   1.8406   2.2734   2.5876   3.4987   3.8988   4.2686
     4.5398   4.7665   4.8123   5.3325   5.9795   6.7988   7.9306   9.9969
    10.1081  15.2980

          k =-0.5004-0.1171 0.6581 (  3915 PWs)   bands (ev):

   -72.8817 -42.3077 -41.5233 -41.0030 -10.6802 -10.4564 -10.2652 -10.0535
     0.9171   1.2286   1.9718   2.3773   2.5967   3.4245   3.6790   4.2290
     4.4044   4.5208   4.9185   5.1691   5.9760   6.9668   7.9154   9.8112
    10.0680  15.8401

          k =-0.4997-0.1183 0.0957 (  3928 PWs)   bands (ev):

   -72.8817 -42.3076 -41.5233 -41.0030 -10.7178 -10.4765 -10.2487 -10.0184
     1.0802   1.3422   2.2124   2.4489   2.6511   3.1075   3.3955   4.1571
     4.3501   4.4911   4.9047   5.0402   5.9668   7.0956   7.9040   9.5961
    10.0829  16.0911

     the Fermi energy is     7.0472 ev

!    total energy              =    -520.62078998 Ry
     total all-electron energy =     -3720.874048 Ry
     estimated scf accuracy    <          6.8E-09 Ry
     smearing contrib. (-TS)   =      -0.00493142 Ry
     internal energy E=F+TS    =    -520.61585856 Ry

     The total energy is F=E-TS. E is the sum of the following terms:
     one-electron contribution =    -240.58253736 Ry
     hartree contribution      =     145.36651096 Ry
     xc contribution           =     -61.25012906 Ry
     ewald contribution        =    -185.65368497 Ry
     Hubbard energy            =       0.24481580 Ry
     one-center paw contrib.   =    -178.74083393 Ry

     convergence has been achieved in  10 iterations
     force_hub    :    195.27s CPU     22.86s WALL (      12 calls)
     dndtau       :    171.48s CPU     20.08s WALL (    9072 calls)
     dprojdtau    :     26.45s CPU      3.26s WALL (    9072 calls)
     calc_doverla :     91.08s CPU     10.76s WALL (    9072 calls)
     matel_dSdtau :    124.75s CPU     14.36s WALL (   18144 calls)

     Forces acting on atoms (cartesian axes, Ry/au):

     atom    1 type  1   force =     0.00016613   -0.00039290    0.00012135
     atom    2 type  1   force =     0.00002131    0.00013113    0.00004121
     atom    3 type  3   force =    -0.00001937    0.00049045   -0.00062571
     atom    4 type  2   force =    -0.00020588    0.00026028    0.00029221
     atom    5 type  2   force =     0.00011725    0.00011441    0.00084194
     atom    6 type  2   force =    -0.00002032   -0.00054159   -0.00078487
     atom    7 type  2   force =    -0.00005913   -0.00006178    0.00011388

     Total force =     0.001646     Total SCF correction =     0.000054


     Computing stress (Cartesian axis) and pressure

     stres_hub    :    547.44s CPU     62.16s WALL (      12 calls)
     dprojdepsilo :    442.09s CPU     50.28s WALL (    3888 calls)
     dprojdeps1   :     47.22s CPU      5.74s WALL (    3888 calls)
     dprojdeps2   :    245.78s CPU     28.19s WALL (    3888 calls)
     dprojdeps3   :    149.00s CPU     16.34s WALL (    3888 calls)
          total   stress  (Ry/bohr**3)                   (kbar)     P=        0.03
  -0.00000109  -0.00000086   0.00000030           -0.16       -0.13        0.04
  -0.00000086   0.00000365  -0.00000130           -0.13        0.54       -0.19
   0.00000030  -0.00000130  -0.00000186            0.04       -0.19       -0.27

     Energy error            =      6.5E-06 Ry
     Gradient error          =      8.4E-04 Ry/Bohr
     Cell gradient error     =      5.4E-01 kbar

     number of scf cycles    =  12
     number of bfgs steps    =  11

     enthalpy           old  =    -520.6207834809 Ry
     enthalpy           new  =    -520.6207899820 Ry

     CASE: enthalpy          _new < enthalpy          _old

     new trust radius        =       0.0030541283 bohr
     new conv_thr            =       0.0000000100 Ry

     new unit-cell volume =    487.63411 a.u.^3 (    72.25992 Ang^3 )
     density =      3.85018 g/cm^3

CELL_PARAMETERS (angstrom)
   2.962491579  -0.004786245   0.004103218
   1.492920427   6.184624560  -0.011895477
   2.962706665   3.178186145   3.939292619

ATOMIC_POSITIONS (angstrom)
Mg               3.4435499314        4.7953137304        1.4557543583
Mg               3.4385678582        1.1054245346        0.3423012339
Mn               4.9193982360        2.3300473153        2.5376285736
O                3.4482321874        6.9041383910        1.8214603185
O                4.9218941152        4.3047737170        2.8656591309
O                3.4406478865        2.7937737705        1.3648599002
O                4.9284184085        8.4082665982        3.8991734132



     Writing config-only to output data dir .\out\\qgan.save\ :
     XML data file
     NEW-OLD atomic charge density approx. for the potential
     New effective cutoffs (rho, wfc):  494.70   61.86

     Check: negative core charge=   -0.000002

     Atomic wfc used for Hubbard projectors are orthogonalized


     total cpu time spent up to now is      563.4 secs

     Self-consistent Calculation

     iteration #  1     ecut=    60.00 Ry     beta= 0.70
     Davidson diagonalization with overlap
     ethr =  1.00E-06,  avg # of iterations =  5.7

     =================== HUBBARD OCCUPATIONS ===================
     ------------------------ ATOM    3 ------------------------
     Tr[ns(  3)] =   5.23704
     eigenvalues:
       0.219  0.312  0.399  0.713  0.976
     eigenvectors (columns):
       0.537 -0.002 -0.208  0.001 -0.818
      -0.001  0.965  0.002  0.264 -0.003
      -0.805 -0.001 -0.417 -0.000 -0.422
       0.254  0.004 -0.885 -0.002  0.391
      -0.000  0.264  0.002 -0.965 -0.002
     occupation matrix ns (before diag.):
       0.733  0.002  0.277 -0.209  0.001
       0.002  0.340  0.001 -0.001 -0.102
       0.277  0.001  0.385 -0.058  0.001
      -0.209 -0.001 -0.058  0.476  0.000
       0.001 -0.102  0.001  0.000  0.685

     Number of occupied Hubbard levels =    5.2370

     Threshold (ethr) on eigenvalues was too large:
     Diagonalizing with lowered threshold

     Davidson diagonalization with overlap
     ethr =  1.30E-08,  avg # of iterations =  5.8

     total cpu time spent up to now is      569.5 secs

     total energy              =    -520.62079269 Ry
     estimated scf accuracy    <       0.00000655 Ry

     iteration #  2     ecut=    60.00 Ry     beta= 0.70
     Davidson diagonalization with overlap
     ethr =  1.52E-08,  avg # of iterations =  2.4

     total cpu time spent up to now is      571.9 secs

     total energy              =    -520.62079012 Ry
     estimated scf accuracy    <       0.00001877 Ry

     iteration #  3     ecut=    60.00 Ry     beta= 0.70
     Davidson diagonalization with overlap
     ethr =  1.52E-08,  avg # of iterations =  2.0

     total cpu time spent up to now is      574.0 secs

     total energy              =    -520.62079241 Ry
     estimated scf accuracy    <       0.00001392 Ry

     iteration #  4     ecut=    60.00 Ry     beta= 0.70
     Davidson diagonalization with overlap
     ethr =  1.52E-08,  avg # of iterations =  2.0

     total cpu time spent up to now is      576.2 secs

     total energy              =    -520.62079403 Ry
     estimated scf accuracy    <       0.00000298 Ry

     iteration #  5     ecut=    60.00 Ry     beta= 0.70
     Davidson diagonalization with overlap
     ethr =  6.93E-09,  avg # of iterations =  1.2

     total cpu time spent up to now is      578.2 secs

     total energy              =    -520.62079444 Ry
     estimated scf accuracy    <       0.00000018 Ry

     iteration #  6     ecut=    60.00 Ry     beta= 0.70
     Davidson diagonalization with overlap
     ethr =  4.12E-10,  avg # of iterations =  6.8

     total cpu time spent up to now is      581.2 secs

     total energy              =    -520.62079461 Ry
     estimated scf accuracy    <       0.00000005 Ry

     iteration #  7     ecut=    60.00 Ry     beta= 0.70
     Davidson diagonalization with overlap
     ethr =  1.17E-10,  avg # of iterations =  4.6

     total cpu time spent up to now is      583.7 secs

     total energy              =    -520.62079463 Ry
     estimated scf accuracy    <       0.00000002 Ry

     iteration #  8     ecut=    60.00 Ry     beta= 0.70
     Davidson diagonalization with overlap
     ethr =  5.51E-11,  avg # of iterations =  2.5

     total cpu time spent up to now is      586.1 secs

     total energy              =    -520.62079464 Ry
     estimated scf accuracy    <       0.00000001 Ry

     iteration #  9     ecut=    60.00 Ry     beta= 0.70
     Davidson diagonalization with overlap
     ethr =  3.14E-11,  avg # of iterations =  2.9

     total cpu time spent up to now is      588.3 secs

     total energy              =    -520.62079464 Ry
     estimated scf accuracy    <       0.00000001 Ry

     iteration # 10     ecut=    60.00 Ry     beta= 0.70
     Davidson diagonalization with overlap
     ethr =  2.36E-11,  avg # of iterations =  2.4

     total cpu time spent up to now is      590.5 secs

     End of self-consistent calculation

     =================== HUBBARD OCCUPATIONS ===================
     ------------------------ ATOM    3 ------------------------
     Tr[ns(  3)] =   5.23652
     eigenvalues:
       0.219  0.312  0.399  0.713  0.976
     eigenvectors (columns):
       0.536 -0.002 -0.208  0.000 -0.818
      -0.001  0.965  0.001  0.264 -0.003
      -0.805 -0.001 -0.417 -0.000 -0.421
       0.254  0.004 -0.885 -0.002  0.391
      -0.000  0.264  0.003 -0.965 -0.002
     occupation matrix ns (before diag.):
       0.734  0.002  0.276 -0.209  0.001
       0.002  0.340  0.001 -0.001 -0.102
       0.276  0.001  0.385 -0.058  0.001
      -0.209 -0.001 -0.058  0.476  0.000
       0.001 -0.102  0.001  0.000  0.685

     Number of occupied Hubbard levels =    5.2365

          k = 0.0000 0.0000 0.0000 (  3893 PWs)   bands (ev):

   -72.8883 -42.3150 -41.5360 -40.9260 -11.8812 -10.5524 -10.2830 -10.0559
     0.8171   1.4972   2.2395   2.7002   3.0727   3.9159   4.0992   4.3632
     4.6243   5.4174   5.6236   5.6743   6.0608   7.1395   7.9981  10.0769
    10.3389  11.7293

          k =-0.0003 0.0004 0.1876 (  3895 PWs)   bands (ev):

   -72.8882 -42.3151 -41.5361 -40.9260 -11.6846 -10.7078 -10.3535 -10.0937
     1.0140   1.7998   1.9806   3.0747   3.0817   3.8777   4.0221   4.4747
     4.5973   4.9620   5.5700   5.5984   5.7621   7.0970   8.1007   9.7868
    10.3806  12.8459

          k = 0.0005-0.0008-0.3752 (  3894 PWs)   bands (ev):

   -72.8881 -42.3151 -41.5361 -40.9260 -11.3540 -10.9828 -10.4250 -10.1465
     1.2719   1.8277   2.5178   3.0160   3.0707   3.4825   3.8716   4.5483
     4.5653   4.8320   5.4800   5.5181   5.6297   7.0537   8.1837   9.5448
    10.4232  14.4596

          k = 0.0003 0.1193-0.0965 (  3889 PWs)   bands (ev):

   -72.8882 -42.3150 -41.5361 -40.9260 -11.7761 -10.5793 -10.4196 -10.0390
     1.0402   1.5161   2.1957   2.7957   3.1079   3.9367   4.1143   4.3103
     4.6890   5.0206   5.4856   5.6263   6.0642   7.1638   7.9916  10.1415
    10.3788  12.5188

          k = 0.0001 0.1197 0.0911 (  3904 PWs)   bands (ev):

   -72.8883 -42.3151 -41.5361 -40.9260 -11.7293 -10.7893 -10.2463 -10.0486
     0.9509   1.7967   2.1075   2.8933   3.0402   3.8062   3.9162   4.4798
     4.6141   5.2192   5.5800   5.5823   5.8394   7.1341   8.0967   9.7925
    10.3399  12.4940

          k = 0.0008 0.1185-0.4717 (  3922 PWs)   bands (ev):

   -72.8882 -42.3152 -41.5361 -40.9261 -11.4047 -11.0620 -10.3249 -10.0894
     1.3090   1.6544   2.4304   3.0390   3.1531   3.5095   3.8987   4.3319
     4.5836   5.0792   5.4386   5.4953   5.6756   7.0901   8.2002   9.5551
    10.3823  13.8568

          k = 0.0006 0.1189-0.2841 (  3906 PWs)   bands (ev):

   -72.8882 -42.3151 -41.5361 -40.9260 -11.5317 -10.7877 -10.4832 -10.0790
     1.2372   1.7907   2.2208   2.9703   3.1076   3.8317   3.8953   4.4297
     4.5032   4.8986   5.4469   5.5458   5.7683   7.1241   8.1209   9.8648
    10.4205  14.0904

          k =-0.0007-0.2386 0.1930 (  3908 PWs)   bands (ev):

   -72.8882 -42.3150 -41.5361 -40.9260 -11.6419 -10.6779 -10.5092 -10.0254
     1.0192   1.8615   2.4013   2.8203   3.1456   3.6043   3.9610   4.2526
     4.5788   4.9928   5.4762   5.5776   6.0651   7.1882   7.9831  10.2103
    10.4182  13.8318

          k =-0.0009-0.2382 0.3806 (  3906 PWs)   bands (ev):

   -72.8882 -42.3151 -41.5361 -40.9260 -11.5903 -10.8594 -10.3699 -10.0364
     1.3382   1.7499   2.0058   2.9066   3.0710   3.8063   3.9378   4.4334
     4.7333   4.8807   5.4325   5.5281   5.8051   7.1595   8.1270   9.8757
    10.3798  13.4182

          k =-0.0001-0.2395-0.1822 (  3902 PWs)   bands (ev):

   -72.8883 -42.3152 -41.5361 -40.9260 -11.4475 -11.1310 -10.2299 -10.0454
     1.1558   1.8281   2.3148   3.0091   3.0313   3.7101   3.9275   4.0955
     4.5945   5.1792   5.4786   5.5550   5.7310   7.1249   8.1662   9.5449
    10.3414  13.7604

          k = 0.2497-0.0606-0.1390 (  3913 PWs)   bands (ev):

   -72.8854 -42.3121 -41.5305 -40.9650 -11.3236 -10.5805 -10.2129 -10.0387
     1.4038   1.6757   2.1275   2.4334   2.7798   3.0145   3.8367   4.0098
     4.2814   5.0109   5.3003   5.5131   6.1175   6.9808   8.0214   9.6909
    10.1038  13.9379

          k = 0.2495-0.0601 0.0486 (  3893 PWs)   bands (ev):

   -72.8854 -42.3120 -41.5305 -40.9651 -11.4224 -10.4534 -10.2585 -10.0054
     1.4214   1.8148   2.0449   2.4458   2.8255   2.8675   3.7111   3.9893
     4.2898   5.0279   5.3859   5.5634   6.0434   7.0705   7.9491   9.7576
    10.0795  13.5861

          k = 0.2502-0.0614-0.5141 (  3919 PWs)   bands (ev):

   -72.8854 -42.3121 -41.5305 -40.9650 -11.2275 -10.5502 -10.3449 -10.0579
     1.3231   1.6838   2.2020   2.5543   2.6740   3.0088   3.9998   4.1223
     4.3899   4.9244   5.0540   5.4796   6.1598   6.9698   8.0177   9.6467
    10.0346  14.7081

          k = 0.2500-0.0610-0.3266 (  3917 PWs)   bands (ev):

   -72.8854 -42.3121 -41.5305 -40.9650 -11.0418 -10.7630 -10.2960 -10.0966
     1.3348   1.6522   2.0961   2.4473   2.7320   3.3588   3.9200   4.2019
     4.3860   4.8561   4.9988   5.4656   6.1820   6.8934   8.0854   9.8111
     9.8584  15.0983

          k = 0.2501 0.0588-0.2355 (  3917 PWs)   bands (ev):

   -72.8854 -42.3121 -41.5305 -40.9650 -11.2276 -10.5503 -10.3447 -10.0580
     1.3235   1.6839   2.2023   2.5530   2.6743   3.0089   3.9990   4.1222
     4.3903   4.9253   5.0536   5.4796   6.1599   6.9706   8.0172   9.6474
    10.0339  14.7073

          k = 0.2498 0.0592-0.0479 (  3896 PWs)   bands (ev):

   -72.8854 -42.3120 -41.5305 -40.9651 -11.4225 -10.4533 -10.2584 -10.0054
     1.4214   1.8147   2.0447   2.4457   2.8243   2.8688   3.7110   3.9890
     4.2902   5.0272   5.3868   5.5635   6.0431   7.0707   7.9491   9.7576
    10.0795  13.5857

          k = 0.2506 0.0579-0.6106 (  3911 PWs)   bands (ev):

   -72.8854 -42.3121 -41.5305 -40.9650 -11.3237 -10.5803 -10.2131 -10.0387
     1.4033   1.6759   2.1273   2.4329   2.7811   3.0139   3.8369   4.0105
     4.2815   5.0104   5.2997   5.5137   6.1178   6.9805   8.0216   9.6901
    10.1042  13.9386

          k = 0.2503 0.0583-0.4231 (  3914 PWs)   bands (ev):

   -72.8854 -42.3121 -41.5305 -40.9650 -11.0418 -10.7628 -10.2961 -10.0967
     1.3349   1.6521   2.0961   2.4474   2.7318   3.3591   3.9208   4.2015
     4.3854   4.8560   4.9987   5.4659   6.1822   6.8936   8.0852   9.8115
     9.8578  15.0985

          k = 0.2491-0.2992 0.0540 (  3925 PWs)   bands (ev):

   -72.8854 -42.3121 -41.5305 -40.9651 -11.1571 -10.6489 -10.3427 -10.0429
     1.4703   1.8450   2.1106   2.4659   2.6737   3.1208   3.7062   4.0377
     4.3785   4.8967   5.1113   5.5338   6.1527   6.9812   8.0320   9.6627
    10.1179  14.7107

          k = 0.2488-0.2988 0.2416 (  3914 PWs)   bands (ev):

   -72.8854 -42.3120 -41.5305 -40.9651 -11.2890 -10.4729 -10.4042 -10.0082
     1.3844   1.9734   2.2631   2.5098   2.6654   2.8900   3.5493   3.9490
     4.4802   4.9106   5.1590   5.5917   6.1126   7.0856   7.9368   9.7060
    10.0837  14.4961

          k = 0.2496-0.3000-0.3211 (  3912 PWs)   bands (ev):

   -72.8854 -42.3121 -41.5305 -40.9650 -11.2718 -10.6431 -10.2248 -10.0270
     1.6109   1.7842   1.9357   2.5656   2.7883   3.0483   3.5683   3.8881
     4.1517   5.0706   5.3512   5.5730   6.1074   6.9850   8.0327   9.7190
    10.1878  13.8651

          k = 0.2493-0.2996-0.1335 (  3920 PWs)   bands (ev):

   -72.8854 -42.3121 -41.5305 -40.9650 -11.0636 -10.8663 -10.1957 -10.0571
     1.5709   1.7181   1.9745   2.5673   2.7534   3.1039   3.5105   4.1693
     4.2910   4.8417   5.3177   5.5424   6.1543   6.8940   8.0982   9.9090
     9.9433  14.6158

          k = 0.2494-0.1799-0.0425 (  3912 PWs)   bands (ev):

   -72.8854 -42.3121 -41.5305 -40.9650 -11.2715 -10.6434 -10.2249 -10.0271
     1.6114   1.7844   1.9357   2.5666   2.7877   3.0471   3.5684   3.8879
     4.1525   5.0707   5.3503   5.5733   6.1075   6.9853   8.0323   9.7196
    10.1873  13.8650

          k = 0.2491-0.1794 0.1451 (  3920 PWs)   bands (ev):

   -72.8854 -42.3120 -41.5305 -40.9651 -11.2888 -10.4731 -10.4043 -10.0082
     1.3843   1.9732   2.2634   2.5110   2.6648   2.8898   3.5488   3.9492
     4.4802   4.9103   5.1594   5.5915   6.1126   7.0854   7.9368   9.7058
    10.0837  14.4967

          k = 0.2499-0.1807-0.4176 (  3924 PWs)   bands (ev):

   -72.8854 -42.3121 -41.5305 -40.9651 -11.1572 -10.6489 -10.3426 -10.0428
     1.4696   1.8451   2.1105   2.4665   2.6735   3.1214   3.7054   4.0385
     4.3781   4.8971   5.1116   5.5336   6.1523   6.9804   8.0326   9.6622
    10.1188  14.7106

          k = 0.2497-0.1803-0.2300 (  3914 PWs)   bands (ev):

   -72.8854 -42.3121 -41.5305 -40.9650 -11.0635 -10.8665 -10.1956 -10.0570
     1.5710   1.7178   1.9747   2.5674   2.7535   3.1038   3.5099   4.1701
     4.2907   4.8416   5.3185   5.5418   6.1541   6.8938   8.0983   9.9087
     9.9440  14.6157

          k =-0.4995 0.1211 0.2779 (  3922 PWs)   bands (ev):

   -72.8830 -42.3090 -41.5249 -41.0037 -10.6343 -10.4392 -10.2801 -10.1004
     0.7116   1.2104   1.8412   2.2733   2.5871   3.4987   3.8986   4.2678
     4.5363   4.7657   4.8099   5.3325   5.9766   6.7972   7.9299   9.9976
    10.1059  15.3000

          k =-0.4997 0.1215 0.4655 (  3918 PWs)   bands (ev):

   -72.8830 -42.3090 -41.5250 -41.0037 -10.6799 -10.4560 -10.2654 -10.0588
     0.9148   1.2296   1.9719   2.3765   2.5972   3.4244   3.6784   4.2288
     4.4035   4.5186   4.9170   5.1671   5.9732   6.9652   7.9142   9.8131
    10.0644  15.8391

          k =-0.4989 0.1203-0.0972 (  3936 PWs)   bands (ev):

   -72.8830 -42.3090 -41.5250 -41.0037 -10.7178 -10.4762 -10.2488 -10.0235
     1.0783   1.3426   2.2138   2.4481   2.6505   3.1053   3.3963   4.1575
     4.3493   4.4907   4.9017   5.0384   5.9641   7.0939   7.9021   9.5980
    10.0794  16.0893

          k =-0.4991 0.2404 0.1814 (  3933 PWs)   bands (ev):

   -72.8830 -42.3090 -41.5250 -41.0037 -10.6342 -10.4399 -10.2793 -10.1008
     0.7770   1.1120   1.8488   2.2722   2.5757   3.6514   3.8616   4.2013
     4.5298   4.7529   4.8209   5.3278   5.9753   6.8005   7.9244  10.0121
    10.0813  15.6065

          k =-0.4994 0.2408 0.3690 (  3923 PWs)   bands (ev):

   -72.8830 -42.3090 -41.5250 -41.0037 -10.6793 -10.4586 -10.2629 -10.0594
     0.8995   1.2664   1.9649   2.2347   2.7993   3.3429   3.6752   4.2138
     4.4080   4.5194   4.9284   5.1756   5.9715   6.9701   7.9136   9.8018
    10.0780  15.6313

          k =-0.4986 0.2396-0.1937 (  3915 PWs)   bands (ev):

   -72.8830 -42.3090 -41.5249 -41.0037 -10.7199 -10.4702 -10.2544 -10.0217
     1.0924   1.3114   2.1813   2.5354   2.6910   3.0031   3.4670   4.1334
     4.2843   4.4841   4.8815   5.1004   5.9685   7.0985   7.9023   9.6082
    10.0713  16.0450

          k =-0.4989 0.2400-0.0062 (  3927 PWs)   bands (ev):

   -72.8830 -42.3090 -41.5250 -41.0037 -10.6792 -10.4585 -10.2629 -10.0596
     0.8998   1.2661   1.9643   2.2346   2.7996   3.3430   3.6755   4.2136
     4.4089   4.5196   4.9280   5.1753   5.9717   6.9700   7.9135   9.8015
    10.0781  15.6294

          k =-0.5001-0.1175 0.4709 (  3926 PWs)   bands (ev):

   -72.8830 -42.3090 -41.5250 -41.0037 -10.6344 -10.4391 -10.2801 -10.1004
     0.7124   1.2096   1.8408   2.2730   2.5860   3.4994   3.8997   4.2681
     4.5370   4.7655   4.8098   5.3323   5.9767   6.7975   7.9294   9.9964
    10.1066  15.2979

          k =-0.5004-0.1171 0.6585 (  3915 PWs)   bands (ev):

   -72.8830 -42.3090 -41.5249 -41.0037 -10.6801 -10.4560 -10.2653 -10.0587
     0.9156   1.2293   1.9716   2.3761   2.5961   3.4247   3.6790   4.2286
     4.4036   4.5192   4.9171   5.1673   5.9732   6.9656   7.9139   9.8126
    10.0645  15.8396

          k =-0.4996-0.1184 0.0958 (  3928 PWs)   bands (ev):

   -72.8830 -42.3090 -41.5250 -41.0037 -10.7182 -10.4761 -10.2487 -10.0233
     1.0791   1.3424   2.2136   2.4478   2.6493   3.1057   3.3963   4.1572
     4.3489   4.4910   4.9022   5.0389   5.9641   7.0945   7.9020   9.5977
    10.0795  16.0910

     the Fermi energy is     7.0462 ev

!    total energy              =    -520.62079467 Ry
     total all-electron energy =     -3720.874053 Ry
     estimated scf accuracy    <          6.0E-09 Ry
     smearing contrib. (-TS)   =      -0.00492494 Ry
     internal energy E=F+TS    =    -520.61586972 Ry

     The total energy is F=E-TS. E is the sum of the following terms:
     one-electron contribution =    -240.57024473 Ry
     hartree contribution      =     145.35862223 Ry
     xc contribution           =     -61.24982090 Ry
     ewald contribution        =    -185.65838400 Ry
     Hubbard energy            =       0.24480711 Ry
     one-center paw contrib.   =    -178.74084943 Ry

     convergence has been achieved in  10 iterations
     force_hub    :    209.75s CPU     24.72s WALL (      13 calls)
     dndtau       :    184.47s CPU     21.72s WALL (    9828 calls)
     dprojdtau    :     28.06s CPU      3.55s WALL (    9828 calls)
     calc_doverla :     96.72s CPU     11.65s WALL (    9828 calls)
     matel_dSdtau :    135.38s CPU     15.52s WALL (   19656 calls)

     Forces acting on atoms (cartesian axes, Ry/au):

     atom    1 type  1   force =     0.00004183   -0.00029596    0.00001411
     atom    2 type  1   force =     0.00002748    0.00003038    0.00025312
     atom    3 type  3   force =    -0.00000210    0.00010678   -0.00053333
     atom    4 type  2   force =    -0.00011986    0.00033190    0.00023958
     atom    5 type  2   force =     0.00005618    0.00039776    0.00057499
     atom    6 type  2   force =    -0.00003569   -0.00036106   -0.00055133
     atom    7 type  2   force =     0.00003215   -0.00020980    0.00000286

     Total force =     0.001267     Total SCF correction =     0.000052


     Computing stress (Cartesian axis) and pressure

     stres_hub    :    595.27s CPU     67.35s WALL (      13 calls)
     dprojdepsilo :    480.02s CPU     54.48s WALL (    4212 calls)
     dprojdeps1   :     52.45s CPU      6.22s WALL (    4212 calls)
     dprojdeps2   :    266.84s CPU     30.55s WALL (    4212 calls)
     dprojdeps3   :    160.58s CPU     17.70s WALL (    4212 calls)
          total   stress  (Ry/bohr**3)                   (kbar)     P=       -0.04
  -0.00000517  -0.00000046  -0.00000012           -0.76       -0.07       -0.02
  -0.00000046   0.00000291  -0.00000145           -0.07        0.43       -0.21
  -0.00000012  -0.00000145   0.00000138           -0.02       -0.21        0.20

     Energy error            =      4.7E-06 Ry
     Gradient error          =      5.7E-04 Ry/Bohr
     Cell gradient error     =      7.6E-01 kbar

     number of scf cycles    =  13
     number of bfgs steps    =  12

     enthalpy           old  =    -520.6207899820 Ry
     enthalpy           new  =    -520.6207946659 Ry

     CASE: enthalpy          _new < enthalpy          _old

     new trust radius        =       0.0023312286 bohr
     new conv_thr            =       0.0000000100 Ry

     new unit-cell volume =    487.65930 a.u.^3 (    72.26365 Ang^3 )
     density =      3.84998 g/cm^3

CELL_PARAMETERS (angstrom)
   2.962515947  -0.005044166   0.004247438
   1.492379820   6.186232541  -0.012179663
   2.962642416   3.178600217   3.938318750

ATOMIC_POSITIONS (angstrom)
Mg               3.4437019081        4.7957982901        1.4551813190
Mg               3.4385536882        1.1051076141        0.3425963534
Mn               4.9192084164        2.3307133042        2.5365369435
O                3.4472751197        6.9060931731        1.8216517154
O                4.9219666369        4.3050849712        2.8655133920
O                3.4405264276        2.7939177405        1.3633381288
O                4.9276799633        8.4103519331        3.8982448095



     Writing config-only to output data dir .\out\\qgan.save\ :
     XML data file
     NEW-OLD atomic charge density approx. for the potential
     New effective cutoffs (rho, wfc):  494.92   61.89

     Check: negative core charge=   -0.000002

     Atomic wfc used for Hubbard projectors are orthogonalized


     total cpu time spent up to now is      600.4 secs

     Self-consistent Calculation

     iteration #  1     ecut=    60.00 Ry     beta= 0.70
     Davidson diagonalization with overlap
     ethr =  1.00E-06,  avg # of iterations =  3.4

     =================== HUBBARD OCCUPATIONS ===================
     ------------------------ ATOM    3 ------------------------
     Tr[ns(  3)] =   5.23668
     eigenvalues:
       0.219  0.312  0.399  0.713  0.976
     eigenvectors (columns):
       0.536 -0.002 -0.208  0.000 -0.818
      -0.001  0.965  0.001  0.263 -0.003
      -0.805 -0.001 -0.417 -0.000 -0.421
       0.254  0.004 -0.885 -0.002  0.391
      -0.000  0.263  0.003 -0.965 -0.002
     occupation matrix ns (before diag.):
       0.734  0.002  0.276 -0.209  0.001
       0.002  0.339  0.001 -0.001 -0.102
       0.276  0.001  0.385 -0.058  0.001
      -0.209 -0.001 -0.058  0.476  0.000
       0.001 -0.102  0.001  0.000  0.685

     Number of occupied Hubbard levels =    5.2367

     Threshold (ethr) on eigenvalues was too large:
     Diagonalizing with lowered threshold

     Davidson diagonalization with overlap
     ethr =  1.22E-08,  avg # of iterations =  9.1

     total cpu time spent up to now is      607.1 secs

     total energy              =    -520.62079654 Ry
     estimated scf accuracy    <       0.00000332 Ry

     iteration #  2     ecut=    60.00 Ry     beta= 0.70
     Davidson diagonalization with overlap
     ethr =  7.73E-09,  avg # of iterations =  2.0

     total cpu time spent up to now is      609.3 secs

     total energy              =    -520.62079593 Ry
     estimated scf accuracy    <       0.00000375 Ry

     iteration #  3     ecut=    60.00 Ry     beta= 0.70
     Davidson diagonalization with overlap
     ethr =  7.73E-09,  avg # of iterations =  2.0

     total cpu time spent up to now is      611.4 secs

     total energy              =    -520.62079621 Ry
     estimated scf accuracy    <       0.00000691 Ry

     iteration #  4     ecut=    60.00 Ry     beta= 0.70
     Davidson diagonalization with overlap
     ethr =  7.73E-09,  avg # of iterations =  2.0

     total cpu time spent up to now is      613.6 secs

     total energy              =    -520.62079691 Ry
     estimated scf accuracy    <       0.00000285 Ry

     iteration #  5     ecut=    60.00 Ry     beta= 0.70
     Davidson diagonalization with overlap
     ethr =  6.63E-09,  avg # of iterations =  1.0

     total cpu time spent up to now is      615.5 secs

     total energy              =    -520.62079724 Ry
     estimated scf accuracy    <       0.00000004 Ry

     iteration #  6     ecut=    60.00 Ry     beta= 0.70
     Davidson diagonalization with overlap
     ethr =  9.06E-11,  avg # of iterations = 10.8

     total cpu time spent up to now is      619.4 secs

     total energy              =    -520.62079732 Ry
     estimated scf accuracy    <       0.00000007 Ry

     iteration #  7     ecut=    60.00 Ry     beta= 0.70
     Davidson diagonalization with overlap
     ethr =  9.06E-11,  avg # of iterations =  2.0

     total cpu time spent up to now is      621.5 secs

     total energy              =    -520.62079733 Ry
     estimated scf accuracy    <       0.00000001 Ry

     iteration #  8     ecut=    60.00 Ry     beta= 0.70
     Davidson diagonalization with overlap
     ethr =  2.75E-11,  avg # of iterations =  8.1

     total cpu time spent up to now is      624.8 secs

     End of self-consistent calculation

     =================== HUBBARD OCCUPATIONS ===================
     ------------------------ ATOM    3 ------------------------
     Tr[ns(  3)] =   5.23654
     eigenvalues:
       0.219  0.312  0.399  0.713  0.976
     eigenvectors (columns):
       0.535 -0.002 -0.208  0.000 -0.819
      -0.001  0.965  0.001  0.263 -0.003
      -0.806 -0.001 -0.417 -0.000 -0.421
       0.254  0.003 -0.885 -0.003  0.391
      -0.001  0.263  0.003 -0.965 -0.002
     occupation matrix ns (before diag.):
       0.734  0.002  0.276 -0.209  0.001
       0.002  0.339  0.001 -0.001 -0.102
       0.276  0.001  0.384 -0.058  0.001
      -0.209 -0.001 -0.058  0.476  0.000
       0.001 -0.102  0.001  0.000  0.685

     Number of occupied Hubbard levels =    5.2365

          k = 0.0000 0.0000 0.0000 (  3893 PWs)   bands (ev):

   -72.8893 -42.3164 -41.5373 -40.9266 -11.8815 -10.5527 -10.2835 -10.0586
     0.8175   1.4946   2.2396   2.7001   3.0737   3.9146   4.0964   4.3626
     4.6254   5.4157   5.6222   5.6720   6.0593   7.1389   7.9963  10.0763
    10.3368  11.7291

          k =-0.0003 0.0004 0.1876 (  3895 PWs)   bands (ev):

   -72.8893 -42.3165 -41.5374 -40.9266 -11.6848 -10.7078 -10.3542 -10.0964
     1.0145   1.7992   1.9783   3.0756   3.0816   3.8766   4.0208   4.4740
     4.5961   4.9620   5.5674   5.5959   5.7605   7.0965   8.0990   9.7859
    10.3786  12.8459

          k = 0.0005-0.0009-0.3753 (  3894 PWs)   bands (ev):

   -72.8892 -42.3165 -41.5374 -40.9266 -11.3542 -10.9825 -10.4260 -10.1494
     1.2722   1.8279   2.5170   3.0143   3.0716   3.4808   3.8707   4.5487
     4.5645   4.8300   5.4781   5.5153   5.6278   7.0533   8.1821   9.5436
    10.4211  14.4617

          k = 0.0003 0.1193-0.0965 (  3889 PWs)   bands (ev):

   -72.8893 -42.3164 -41.5374 -40.9266 -11.7764 -10.5799 -10.4196 -10.0418
     1.0400   1.5145   2.1953   2.7951   3.1088   3.9355   4.1130   4.3097
     4.6881   5.0205   5.4829   5.6241   6.0627   7.1631   7.9901  10.1413
    10.3767  12.5185

          k = 0.0001 0.1197 0.0911 (  3904 PWs)   bands (ev):

   -72.8893 -42.3165 -41.5373 -40.9266 -11.7295 -10.7895 -10.2468 -10.0513
     0.9517   1.7956   2.1066   2.8927   3.0412   3.8047   3.9149   4.4792
     4.6132   5.2165   5.5776   5.5811   5.8383   7.1335   8.0952   9.7918
    10.3379  12.4938

          k = 0.0009 0.1184-0.4718 (  3922 PWs)   bands (ev):

   -72.8893 -42.3165 -41.5374 -40.9266 -11.4049 -11.0621 -10.3256 -10.0922
     1.3097   1.6547   2.4298   3.0400   3.1508   3.5082   3.8976   4.3300
     4.5828   5.0781   5.4368   5.4926   5.6741   7.0897   8.1988   9.5541
    10.3803  13.8559

          k = 0.0006 0.1188-0.2842 (  3906 PWs)   bands (ev):

   -72.8892 -42.3165 -41.5374 -40.9266 -11.5321 -10.7876 -10.4839 -10.0818
     1.2373   1.7898   2.2201   2.9694   3.1085   3.8310   3.8943   4.4289
     4.5023   4.8974   5.4444   5.5434   5.7667   7.1236   8.1195   9.8643
    10.4183  14.0912

          k =-0.0007-0.2385 0.1930 (  3908 PWs)   bands (ev):

   -72.8893 -42.3164 -41.5374 -40.9266 -11.6424 -10.6786 -10.5088 -10.0282
     1.0182   1.8614   2.4005   2.8193   3.1464   3.6038   3.9599   4.2519
     4.5773   4.9924   5.4738   5.5755   6.0636   7.1875   7.9816  10.2106
    10.4160  13.8321

          k =-0.0010-0.2381 0.3807 (  3906 PWs)   bands (ev):

   -72.8893 -42.3165 -41.5374 -40.9266 -11.5907 -10.8594 -10.3703 -10.0392
     1.3389   1.7486   2.0056   2.9056   3.0720   3.8050   3.9366   4.4327
     4.7318   4.8788   5.4306   5.5258   5.8039   7.1589   8.1259   9.8754
    10.3778  13.4178

          k =-0.0001-0.2394-0.1822 (  3902 PWs)   bands (ev):

   -72.8893 -42.3165 -41.5373 -40.9266 -11.4476 -11.1313 -10.2305 -10.0481
     1.1567   1.8287   2.3148   3.0101   3.0282   3.7080   3.9264   4.0939
     4.5937   5.1770   5.4760   5.5529   5.7307   7.1243   8.1649   9.5443
    10.3394  13.7586

          k = 0.2497-0.0605-0.1390 (  3913 PWs)   bands (ev):

   -72.8864 -42.3134 -41.5318 -40.9656 -11.3240 -10.5805 -10.2135 -10.0414
     1.4043   1.6749   2.1272   2.4324   2.7796   3.0135   3.8353   4.0085
     4.2799   5.0101   5.2992   5.5105   6.1170   6.9798   8.0197   9.6897
    10.1027  13.9387

          k = 0.2495-0.0601 0.0486 (  3893 PWs)   bands (ev):

   -72.8864 -42.3134 -41.5318 -40.9656 -11.4229 -10.4534 -10.2591 -10.0080
     1.4215   1.8134   2.0445   2.4454   2.8254   2.8671   3.7103   3.9873
     4.2882   5.0274   5.3853   5.5603   6.0427   7.0696   7.9473   9.7568
    10.0782  13.5861

          k = 0.2503-0.0614-0.5143 (  3919 PWs)   bands (ev):

   -72.8864 -42.3134 -41.5318 -40.9656 -11.2279 -10.5499 -10.3457 -10.0606
     1.3232   1.6831   2.2013   2.5536   2.6738   3.0082   3.9980   4.1213
     4.3884   4.9237   5.0539   5.4763   6.1594   6.9685   8.0159   9.6456
    10.0336  14.7086

          k = 0.2500-0.0610-0.3266 (  3917 PWs)   bands (ev):

   -72.8865 -42.3135 -41.5318 -40.9656 -11.0422 -10.7627 -10.2968 -10.0995
     1.3350   1.6518   2.0958   2.4466   2.7317   3.3577   3.9187   4.2004
     4.3842   4.8551   4.9988   5.4622   6.1819   6.8921   8.0836   9.8103
     9.8569  15.1000

          k = 0.2501 0.0588-0.2355 (  3917 PWs)   bands (ev):

   -72.8864 -42.3134 -41.5318 -40.9656 -11.2279 -10.5500 -10.3456 -10.0607
     1.3236   1.6831   2.2015   2.5527   2.6741   3.0082   3.9974   4.1213
     4.3885   4.9242   5.0538   5.4762   6.1595   6.9692   8.0153   9.6464
    10.0330  14.7081

          k = 0.2498 0.0592-0.0479 (  3896 PWs)   bands (ev):

   -72.8864 -42.3134 -41.5318 -40.9656 -11.4230 -10.4534 -10.2590 -10.0080
     1.4215   1.8134   2.0443   2.4454   2.8246   2.8679   3.7102   3.9872
     4.2883   5.0271   5.3857   5.5604   6.0426   7.0697   7.9472   9.7568
    10.0783  13.5859

          k = 0.2506 0.0579-0.6108 (  3911 PWs)   bands (ev):

   -72.8864 -42.3134 -41.5318 -40.9656 -11.3240 -10.5804 -10.2136 -10.0413
     1.4040   1.6749   2.1271   2.4321   2.7805   3.0132   3.8354   4.0090
     4.2799   5.0098   5.2987   5.5108   6.1172   6.9795   8.0199   9.6890
    10.1031  13.9390

          k = 0.2503 0.0583-0.4232 (  3914 PWs)   bands (ev):

   -72.8865 -42.3135 -41.5318 -40.9656 -11.0422 -10.7626 -10.2968 -10.0995
     1.3351   1.6518   2.0959   2.4467   2.7315   3.3578   3.9192   4.2002
     4.3838   4.8551   4.9986   5.4624   6.1820   6.8922   8.0835   9.8108
     9.8564  15.1000

          k = 0.2490-0.2991 0.0540 (  3925 PWs)   bands (ev):

   -72.8865 -42.3134 -41.5318 -40.9656 -11.1577 -10.6489 -10.3431 -10.0456
     1.4700   1.8446   2.1103   2.4652   2.6732   3.1205   3.7055   4.0365
     4.3760   4.8960   5.1103   5.5305   6.1523   6.9798   8.0305   9.6618
    10.1173  14.7103

          k = 0.2488-0.2986 0.2417 (  3914 PWs)   bands (ev):

   -72.8864 -42.3134 -41.5318 -40.9656 -11.2894 -10.4736 -10.4040 -10.0108
     1.3837   1.9727   2.2628   2.5098   2.6653   2.8890   3.5488   3.9476
     4.4782   4.9098   5.1583   5.5883   6.1121   7.0843   7.9351   9.7052
    10.0830  14.4961

          k = 0.2496-0.2999-0.3212 (  3912 PWs)   bands (ev):

   -72.8864 -42.3134 -41.5318 -40.9656 -11.2722 -10.6433 -10.2253 -10.0298
     1.6113   1.7833   1.9357   2.5651   2.7877   3.0476   3.5672   3.8874
     4.1494   5.0692   5.3498   5.5702   6.1070   6.9840   8.0312   9.7180
    10.1869  13.8653

          k = 0.2493-0.2995-0.1336 (  3920 PWs)   bands (ev):

   -72.8864 -42.3135 -41.5318 -40.9656 -11.0640 -10.8665 -10.1961 -10.0599
     1.5715   1.7180   1.9745   2.5665   2.7526   3.1033   3.5083   4.1677
     4.2893   4.8409   5.3161   5.5396   6.1538   6.8929   8.0969   9.9084
     9.9420  14.6169

          k = 0.2494-0.1798-0.0425 (  3912 PWs)   bands (ev):

   -72.8864 -42.3134 -41.5318 -40.9656 -11.2721 -10.6434 -10.2252 -10.0298
     1.6117   1.7836   1.9358   2.5656   2.7873   3.0466   3.5673   3.8869
     4.1499   5.0692   5.3495   5.5703   6.1071   6.9843   8.0309   9.7186
    10.1865  13.8653

          k = 0.2491-0.1794 0.1451 (  3920 PWs)   bands (ev):

   -72.8864 -42.3134 -41.5318 -40.9656 -11.2894 -10.4737 -10.4040 -10.0108
     1.3836   1.9725   2.2629   2.5107   2.6647   2.8890   3.5485   3.9478
     4.4783   4.9095   5.1585   5.5883   6.1121   7.0842   7.9352   9.7051
    10.0830  14.4963

          k = 0.2499-0.1807-0.4178 (  3924 PWs)   bands (ev):

   -72.8865 -42.3134 -41.5318 -40.9656 -11.1577 -10.6488 -10.3431 -10.0455
     1.4694   1.8446   2.1103   2.4655   2.6733   3.1210   3.7052   4.0370
     4.3757   4.8962   5.1105   5.5303   6.1520   6.9792   8.0310   9.6612
    10.1180  14.7105

          k = 0.2497-0.1802-0.2301 (  3914 PWs)   bands (ev):

   -72.8864 -42.3135 -41.5318 -40.9656 -11.0640 -10.8665 -10.1961 -10.0598
     1.5716   1.7178   1.9745   2.5664   2.7529   3.1033   3.5080   4.1682
     4.2891   4.8409   5.3166   5.5393   6.1537   6.8927   8.0970   9.9081
     9.9425  14.6168

          k =-0.4995 0.1210 0.2780 (  3922 PWs)   bands (ev):

   -72.8841 -42.3104 -41.5262 -41.0042 -10.6350 -10.4384 -10.2815 -10.1028
     0.7108   1.2105   1.8408   2.2719   2.5852   3.4982   3.8995   4.2676
     4.5356   4.7636   4.8073   5.3312   5.9758   6.7960   7.9283   9.9967
    10.1049  15.2990

          k =-0.4997 0.1215 0.4657 (  3918 PWs)   bands (ev):

   -72.8841 -42.3104 -41.5262 -41.0042 -10.6808 -10.4554 -10.2665 -10.0611
     0.9142   1.2298   1.9710   2.3751   2.5960   3.4240   3.6779   4.2286
     4.4026   4.5174   4.9149   5.1648   5.9725   6.9642   7.9125   9.8128
    10.0627  15.8401

          k =-0.4989 0.1202-0.0972 (  3936 PWs)   bands (ev):

   -72.8840 -42.3104 -41.5262 -41.0042 -10.7189 -10.4757 -10.2497 -10.0256
     1.0780   1.3424   2.2138   2.4464   2.6492   3.1035   3.3968   4.1562
     4.3489   4.4905   4.8989   5.0362   5.9633   7.0931   7.9003   9.5976
    10.0778  16.0895

          k =-0.4991 0.2403 0.1815 (  3933 PWs)   bands (ev):

   -72.8841 -42.3104 -41.5262 -41.0042 -10.6348 -10.4391 -10.2806 -10.1033
     0.7758   1.1124   1.8484   2.2712   2.5744   3.6509   3.8612   4.2016
     4.5283   4.7512   4.8183   5.3266   5.9745   6.7993   7.9229  10.0113
    10.0802  15.6072

          k =-0.4994 0.2407 0.3691 (  3923 PWs)   bands (ev):

   -72.8841 -42.3104 -41.5262 -41.0042 -10.6801 -10.4579 -10.2641 -10.0617
     0.8987   1.2667   1.9640   2.2337   2.7982   3.3420   3.6752   4.2137
     4.4071   4.5182   4.9259   5.1734   5.9708   6.9690   7.9119   9.8016
    10.0764  15.6306

          k =-0.4986 0.2394-0.1938 (  3915 PWs)   bands (ev):

   -72.8840 -42.3104 -41.5262 -41.0042 -10.7209 -10.4696 -10.2554 -10.0239
     1.0919   1.3113   2.1810   2.5345   2.6896   3.0015   3.4674   4.1325
     4.2831   4.4838   4.8793   5.0978   5.9677   7.0976   7.9004   9.6080
    10.0697  16.0458

          k =-0.4988 0.2399-0.0061 (  3927 PWs)   bands (ev):

   -72.8841 -42.3104 -41.5262 -41.0042 -10.6801 -10.4579 -10.2640 -10.0618
     0.8990   1.2663   1.9637   2.2336   2.7986   3.3421   3.6753   4.2133
     4.4076   4.5185   4.9255   5.1733   5.9709   6.9691   7.9119   9.8012
    10.0765  15.6296

          k =-0.5001-0.1175 0.4711 (  3926 PWs)   bands (ev):

   -72.8841 -42.3104 -41.5262 -41.0042 -10.6350 -10.4383 -10.2814 -10.1029
     0.7113   1.2098   1.8405   2.2721   2.5849   3.4987   3.8997   4.2674
     4.5358   4.7635   4.8071   5.3311   5.9759   6.7963   7.9281   9.9958
    10.1055  15.2978

          k =-0.5004-0.1171 0.6587 (  3915 PWs)   bands (ev):

   -72.8841 -42.3104 -41.5262 -41.0042 -10.6809 -10.4553 -10.2665 -10.0610
     0.9146   1.2296   1.9710   2.3750   2.5955   3.4242   3.6783   4.2281
     4.4026   4.5177   4.9150   5.1650   5.9725   6.9646   7.9123   9.8126
    10.0628  15.8399

          k =-0.4996-0.1184 0.0958 (  3928 PWs)   bands (ev):

   -72.8840 -42.3104 -41.5262 -41.0042 -10.7190 -10.4755 -10.2498 -10.0255
     1.0783   1.3424   2.2137   2.4464   2.6486   3.1038   3.3967   4.1560
     4.3484   4.4907   4.8991   5.0366   5.9633   7.0934   7.9001   9.5977
    10.0778  16.0906

     the Fermi energy is     7.0452 ev

!    total energy              =    -520.62079734 Ry
     total all-electron energy =     -3720.874056 Ry
     estimated scf accuracy    <          7.7E-09 Ry
     smearing contrib. (-TS)   =      -0.00491928 Ry
     internal energy E=F+TS    =    -520.61587805 Ry

     The total energy is F=E-TS. E is the sum of the following terms:
     one-electron contribution =    -240.56862417 Ry
     hartree contribution      =     145.35612305 Ry
     xc contribution           =     -61.24958423 Ry
     ewald contribution        =    -185.65773314 Ry
     Hubbard energy            =       0.24479112 Ry
     one-center paw contrib.   =    -178.74085069 Ry

     convergence has been achieved in   8 iterations
     force_hub    :    225.84s CPU     26.59s WALL (      14 calls)
     dndtau       :    198.69s CPU     23.37s WALL (   10584 calls)
     dprojdtau    :     29.84s CPU      3.81s WALL (   10584 calls)
     calc_doverla :    104.52s CPU     12.53s WALL (   10584 calls)
     matel_dSdtau :    145.92s CPU     16.71s WALL (   21168 calls)

     Forces acting on atoms (cartesian axes, Ry/au):

     atom    1 type  1   force =    -0.00002305   -0.00020803   -0.00005616
     atom    2 type  1   force =     0.00002881   -0.00015474    0.00028685
     atom    3 type  3   force =    -0.00000521   -0.00009361   -0.00027339
     atom    4 type  2   force =    -0.00005382    0.00026095    0.00018282
     atom    5 type  2   force =     0.00002140    0.00038647    0.00018807
     atom    6 type  2   force =    -0.00003755   -0.00001369   -0.00025472
     atom    7 type  2   force =     0.00006942   -0.00017736   -0.00007346

     Total force =     0.000797     Total SCF correction =     0.000063


     Computing stress (Cartesian axis) and pressure

     stres_hub    :    642.50s CPU     72.51s WALL (      14 calls)
     dprojdepsilo :    516.61s CPU     58.66s WALL (    4536 calls)
     dprojdeps1   :     57.22s CPU      6.71s WALL (    4536 calls)
     dprojdeps2   :    287.34s CPU     32.88s WALL (    4536 calls)
     dprojdeps3   :    171.89s CPU     19.05s WALL (    4536 calls)
          total   stress  (Ry/bohr**3)                   (kbar)     P=       -0.14
  -0.00000585  -0.00000015  -0.00000026           -0.86       -0.02       -0.04
  -0.00000015   0.00000136  -0.00000097           -0.02        0.20       -0.14
  -0.00000026  -0.00000097   0.00000155           -0.04       -0.14        0.23

     Energy error            =      2.7E-06 Ry
     Gradient error          =      3.9E-04 Ry/Bohr
     Cell gradient error     =      8.6E-01 kbar

     number of scf cycles    =  14
     number of bfgs steps    =  13

     enthalpy           old  =    -520.6207946659 Ry
     enthalpy           new  =    -520.6207973353 Ry

     CASE: enthalpy          _new < enthalpy          _old

     new trust radius        =       0.0016972789 bohr
     new conv_thr            =       0.0000000100 Ry

     new unit-cell volume =    487.64458 a.u.^3 (    72.26147 Ang^3 )
     density =      3.85009 g/cm^3

CELL_PARAMETERS (angstrom)
   2.962001764  -0.005202505   0.004301345
   1.491776710   6.187540176  -0.012544902
   2.962026395   3.178907660   3.937853566

ATOMIC_POSITIONS (angstrom)
Mg               3.4431095666        4.7962279551        1.4548115681
Mg               3.4379481069        1.1047855002        0.3429763292
Mn               4.9181864914        2.3311675339        2.5357340027
O                3.4460295300        6.9077161549        1.8216518646
O                4.9210975214        4.3056980521        2.8655795096
O                3.4397876868        2.7941600063        1.3622228383
O                4.9263663688        8.4117675281        3.8975075860



     Writing config-only to output data dir .\out\\qgan.save\ :
     XML data file
     NEW-OLD atomic charge density approx. for the potential
     New effective cutoffs (rho, wfc):  495.00   61.90

     Check: negative core charge=   -0.000002

     Atomic wfc used for Hubbard projectors are orthogonalized


     total cpu time spent up to now is      634.8 secs

     Self-consistent Calculation

     iteration #  1     ecut=    60.00 Ry     beta= 0.70
     Davidson diagonalization with overlap
     ethr =  1.00E-06,  avg # of iterations =  2.2

     =================== HUBBARD OCCUPATIONS ===================
     ------------------------ ATOM    3 ------------------------
     Tr[ns(  3)] =   5.23680
     eigenvalues:
       0.219  0.312  0.399  0.713  0.976
     eigenvectors (columns):
       0.535 -0.002 -0.209  0.000 -0.819
      -0.001  0.965  0.001  0.263 -0.003
      -0.806 -0.002 -0.417 -0.000 -0.420
       0.254  0.003 -0.885 -0.003  0.391
      -0.001  0.263  0.003 -0.965 -0.002
     occupation matrix ns (before diag.):
       0.734  0.002  0.276 -0.209  0.001
       0.002  0.339  0.001 -0.001 -0.102
       0.276  0.001  0.384 -0.058  0.000
      -0.209 -0.001 -0.058  0.476  0.000
       0.001 -0.102  0.000  0.000  0.685

     Number of occupied Hubbard levels =    5.2368

     Threshold (ethr) on eigenvalues was too large:
     Diagonalizing with lowered threshold

     Davidson diagonalization with overlap
     ethr =  1.41E-08,  avg # of iterations =  8.7

     total cpu time spent up to now is      641.1 secs

     total energy              =    -520.62079844 Ry
     estimated scf accuracy    <       0.00000182 Ry

     iteration #  2     ecut=    60.00 Ry     beta= 0.70
     Davidson diagonalization with overlap
     ethr =  4.22E-09,  avg # of iterations =  2.0

     total cpu time spent up to now is      643.4 secs

     total energy              =    -520.62079793 Ry
     estimated scf accuracy    <       0.00000238 Ry

     iteration #  3     ecut=    60.00 Ry     beta= 0.70
     Davidson diagonalization with overlap
     ethr =  4.22E-09,  avg # of iterations =  2.0

     total cpu time spent up to now is      645.6 secs

     total energy              =    -520.62079811 Ry
     estimated scf accuracy    <       0.00000616 Ry

     iteration #  4     ecut=    60.00 Ry     beta= 0.70
     Davidson diagonalization with overlap
     ethr =  4.22E-09,  avg # of iterations =  2.0

     total cpu time spent up to now is      647.6 secs

     total energy              =    -520.62079868 Ry
     estimated scf accuracy    <       0.00000058 Ry

     iteration #  5     ecut=    60.00 Ry     beta= 0.70
     Davidson diagonalization with overlap
     ethr =  1.36E-09,  avg # of iterations =  1.9

     total cpu time spent up to now is      649.8 secs

     total energy              =    -520.62079879 Ry
     estimated scf accuracy    <       0.00000002 Ry

     iteration #  6     ecut=    60.00 Ry     beta= 0.70
     Davidson diagonalization with overlap
     ethr =  5.22E-11,  avg # of iterations = 11.9

     total cpu time spent up to now is      653.9 secs

     total energy              =    -520.62079883 Ry
     estimated scf accuracy    <       0.00000003 Ry

     iteration #  7     ecut=    60.00 Ry     beta= 0.70
     Davidson diagonalization with overlap
     ethr =  5.22E-11,  avg # of iterations =  2.0

     total cpu time spent up to now is      656.0 secs

     End of self-consistent calculation

     =================== HUBBARD OCCUPATIONS ===================
     ------------------------ ATOM    3 ------------------------
     Tr[ns(  3)] =   5.23663
     eigenvalues:
       0.219  0.312  0.399  0.712  0.976
     eigenvectors (columns):
       0.535 -0.002 -0.209  0.000 -0.819
      -0.001  0.965  0.001  0.263 -0.003
      -0.806 -0.002 -0.417 -0.000 -0.420
       0.254  0.003 -0.885 -0.003  0.391
      -0.001  0.263  0.003 -0.965 -0.002
     occupation matrix ns (before diag.):
       0.734  0.002  0.276 -0.209  0.001
       0.002  0.339  0.001 -0.001 -0.102
       0.276  0.001  0.384 -0.058  0.000
      -0.209 -0.001 -0.058  0.476  0.000
       0.001 -0.102  0.000  0.000  0.685

     Number of occupied Hubbard levels =    5.2366

          k = 0.0000 0.0000 0.0000 (  3893 PWs)   bands (ev):

   -72.8893 -42.3167 -41.5375 -40.9259 -11.8814 -10.5530 -10.2835 -10.0597
     0.8178   1.4928   2.2393   2.7004   3.0753   3.9155   4.0946   4.3640
     4.6264   5.4145   5.6219   5.6722   6.0588   7.1393   7.9960  10.0763
    10.3368  11.7304

          k =-0.0003 0.0004 0.1876 (  3895 PWs)   bands (ev):

   -72.8892 -42.3168 -41.5375 -40.9259 -11.6848 -10.7080 -10.3543 -10.0978
     1.0149   1.7989   1.9769   3.0773   3.0818   3.8778   4.0201   4.4751
     4.5951   4.9621   5.5666   5.5960   5.7600   7.0972   8.0987   9.7857
    10.3786  12.8474

          k = 0.0005-0.0009-0.3753 (  3894 PWs)   bands (ev):

   -72.8891 -42.3168 -41.5376 -40.9259 -11.3544 -10.9820 -10.4260 -10.1511
     1.2725   1.8280   2.5162   3.0134   3.0734   3.4801   3.8720   4.5488
     4.5653   4.8291   5.4774   5.5153   5.6270   7.0541   8.1817   9.5433
    10.4211  14.4654

          k = 0.0003 0.1192-0.0965 (  3889 PWs)   bands (ev):

   -72.8892 -42.3167 -41.5375 -40.9259 -11.7764 -10.5803 -10.4193 -10.0430
     1.0398   1.5135   2.1949   2.7953   3.1104   3.9366   4.1120   4.3109
     4.6875   5.0209   5.4816   5.6244   6.0625   7.1636   7.9900  10.1417
    10.3766  12.5198

          k = 0.0001 0.1197 0.0911 (  3904 PWs)   bands (ev):

   -72.8893 -42.3168 -41.5375 -40.9259 -11.7294 -10.7898 -10.2466 -10.0528
     0.9522   1.7947   2.1058   2.8929   3.0429   3.8036   3.9160   4.4803
     4.6130   5.2150   5.5778   5.5810   5.8378   7.1340   8.0951   9.7917
    10.3379  12.4951

          k = 0.0009 0.1183-0.4718 (  3922 PWs)   bands (ev):

   -72.8892 -42.3168 -41.5376 -40.9259 -11.4048 -11.0622 -10.3254 -10.0940
     1.3102   1.6548   2.4291   3.0418   3.1499   3.5073   3.8989   4.3294
     4.5836   5.0772   5.4361   5.4927   5.6737   7.0903   8.1987   9.5539
    10.3803  13.8569

          k = 0.0006 0.1188-0.2842 (  3906 PWs)   bands (ev):

   -72.8892 -42.3168 -41.5376 -40.9259 -11.5322 -10.7873 -10.4840 -10.0832
     1.2372   1.7894   2.2194   2.9692   3.1101   3.8307   3.8956   4.4298
     4.5016   4.8971   5.4432   5.5436   5.7665   7.1241   8.1194   9.8644
    10.4183  14.0936

          k =-0.0007-0.2385 0.1930 (  3908 PWs)   bands (ev):

   -72.8892 -42.3167 -41.5376 -40.9259 -11.6426 -10.6788 -10.5085 -10.0295
     1.0175   1.8611   2.3996   2.8193   3.1479   3.6039   3.9612   4.2529
     4.5757   4.9926   5.4726   5.5758   6.0636   7.1880   7.9816  10.2113
    10.4159  13.8339

          k =-0.0010-0.2380 0.3807 (  3906 PWs)   bands (ev):

   -72.8892 -42.3168 -41.5375 -40.9259 -11.5908 -10.8595 -10.3701 -10.0407
     1.3393   1.7477   2.0054   2.9055   3.0737   3.8039   3.9378   4.4336
     4.7316   4.8775   5.4296   5.5261   5.8037   7.1594   8.1259   9.8757
    10.3778  13.4189

          k =-0.0002-0.2394-0.1822 (  3902 PWs)   bands (ev):

   -72.8893 -42.3168 -41.5375 -40.9259 -11.4473 -11.1317 -10.2301 -10.0499
     1.1574   1.8290   2.3145   3.0119   3.0266   3.7067   3.9276   4.0937
     4.5946   5.1760   5.4763   5.5517   5.7308   7.1249   8.1649   9.5443
    10.3395  13.7588

          k = 0.2498-0.0605-0.1390 (  3913 PWs)   bands (ev):

   -72.8864 -42.3137 -41.5320 -40.9650 -11.3238 -10.5804 -10.2138 -10.0421
     1.4051   1.6751   2.1273   2.4321   2.7798   3.0134   3.8354   4.0077
     4.2795   5.0098   5.2985   5.5094   6.1177   6.9799   8.0193   9.6899
    10.1029  13.9410

          k = 0.2495-0.0601 0.0486 (  3893 PWs)   bands (ev):

   -72.8864 -42.3137 -41.5319 -40.9650 -11.4228 -10.4534 -10.2592 -10.0085
     1.4219   1.8128   2.0450   2.4454   2.8258   2.8670   3.7102   3.9871
     4.2873   5.0273   5.3848   5.5590   6.0432   7.0699   7.9469   9.7574
    10.0783  13.5878

          k = 0.2503-0.0614-0.5143 (  3919 PWs)   bands (ev):

   -72.8864 -42.3137 -41.5320 -40.9650 -11.2280 -10.5495 -10.3458 -10.0615
     1.3239   1.6831   2.2010   2.5536   2.6741   3.0081   3.9974   4.1217
     4.3872   4.9234   5.0543   5.4748   6.1603   6.9686   8.0154   9.6459
    10.0339  14.7109

          k = 0.2500-0.0609-0.3267 (  3917 PWs)   bands (ev):

   -72.8864 -42.3138 -41.5320 -40.9650 -11.0425 -10.7619 -10.2968 -10.1006
     1.3359   1.6521   2.0958   2.4465   2.7320   3.3569   3.9183   4.2004
     4.3834   4.8546   4.9995   5.4604   6.1828   6.8921   8.0831   9.8104
     9.8573  15.1035

          k = 0.2501 0.0587-0.2356 (  3917 PWs)   bands (ev):

   -72.8864 -42.3137 -41.5320 -40.9650 -11.2279 -10.5495 -10.3458 -10.0615
     1.3242   1.6831   2.2012   2.5529   2.6744   3.0081   3.9971   4.1216
     4.3872   4.9236   5.0544   5.4746   6.1603   6.9692   8.0149   9.6468
    10.0333  14.7107

          k = 0.2498 0.0592-0.0479 (  3896 PWs)   bands (ev):

   -72.8864 -42.3137 -41.5319 -40.9650 -11.4228 -10.4534 -10.2592 -10.0085
     1.4219   1.8128   2.0447   2.4455   2.8254   2.8676   3.7101   3.9872
     4.2871   5.0273   5.3849   5.5590   6.0432   7.0700   7.9468   9.7575
    10.0783  13.5878

          k = 0.2507 0.0578-0.6109 (  3911 PWs)   bands (ev):

   -72.8864 -42.3137 -41.5320 -40.9650 -11.3239 -10.5803 -10.2138 -10.0420
     1.4049   1.6750   2.1272   2.4319   2.7803   3.0135   3.8355   4.0083
     4.2794   5.0096   5.2982   5.5096   6.1178   6.9797   8.0195   9.6893
    10.1033  13.9411

          k = 0.2504 0.0583-0.4232 (  3914 PWs)   bands (ev):

   -72.8864 -42.3138 -41.5320 -40.9650 -11.0425 -10.7618 -10.2968 -10.1006
     1.3360   1.6520   2.0959   2.4466   2.7318   3.3569   3.9186   4.2003
     4.3832   4.8547   4.9992   5.4606   6.1829   6.8922   8.0830   9.8109
     9.8568  15.1034

          k = 0.2491-0.2990 0.0540 (  3925 PWs)   bands (ev):

   -72.8864 -42.3137 -41.5320 -40.9650 -11.1579 -10.6485 -10.3429 -10.0465
     1.4703   1.8448   2.1103   2.4653   2.6733   3.1208   3.7058   4.0363
     4.3744   4.8958   5.1101   5.5289   6.1531   6.9798   8.0302   9.6624
    10.1177  14.7117

          k = 0.2488-0.2985 0.2417 (  3914 PWs)   bands (ev):

   -72.8864 -42.3137 -41.5320 -40.9650 -11.2895 -10.4739 -10.4036 -10.0116
     1.3836   1.9722   2.2628   2.5106   2.6657   2.8888   3.5493   3.9478
     4.4765   4.9096   5.1581   5.5870   6.1128   7.0843   7.9348   9.7060
    10.0832  14.4979

          k = 0.2496-0.2999-0.3213 (  3912 PWs)   bands (ev):

   -72.8864 -42.3137 -41.5320 -40.9650 -11.2721 -10.6433 -10.2252 -10.0306
     1.6121   1.7830   1.9363   2.5648   2.7880   3.0477   3.5673   3.8874
     4.1483   5.0688   5.3487   5.5689   6.1077   6.9841   8.0310   9.7185
    10.1872  13.8671

          k = 0.2493-0.2994-0.1336 (  3920 PWs)   bands (ev):

   -72.8863 -42.3138 -41.5320 -40.9650 -11.0639 -10.8663 -10.1959 -10.0609
     1.5726   1.7185   1.9746   2.5664   2.7525   3.1033   3.5075   4.1675
     4.2889   4.8405   5.3152   5.5384   6.1545   6.8930   8.0968   9.9089
     9.9422  14.6195

          k = 0.2494-0.1797-0.0425 (  3912 PWs)   bands (ev):

   -72.8864 -42.3137 -41.5320 -40.9650 -11.2721 -10.6433 -10.2252 -10.0306
     1.6124   1.7832   1.9364   2.5650   2.7876   3.0470   3.5674   3.8868
     4.1487   5.0688   5.3487   5.5690   6.1077   6.9844   8.0307   9.7191
    10.1869  13.8670

          k = 0.2492-0.1793 0.1451 (  3920 PWs)   bands (ev):

   -72.8864 -42.3137 -41.5320 -40.9650 -11.2895 -10.4739 -10.4035 -10.0116
     1.3836   1.9721   2.2628   2.5112   2.6651   2.8888   3.5491   3.9479
     4.4767   4.9094   5.1581   5.5870   6.1128   7.0842   7.9348   9.7059
    10.0832  14.4979

          k = 0.2500-0.1806-0.4178 (  3924 PWs)   bands (ev):

   -72.8864 -42.3137 -41.5320 -40.9650 -11.1579 -10.6484 -10.3430 -10.0465
     1.4698   1.8447   2.1102   2.4654   2.6736   3.1212   3.7057   4.0367
     4.3742   4.8959   5.1102   5.5288   6.1530   6.9792   8.0306   9.6617
    10.1183  14.7121

          k = 0.2497-0.1802-0.2302 (  3914 PWs)   bands (ev):

   -72.8863 -42.3138 -41.5320 -40.9650 -11.0639 -10.8663 -10.1959 -10.0609
     1.5726   1.7184   1.9745   2.5662   2.7529   3.1033   3.5074   4.1678
     4.2888   4.8406   5.3155   5.5382   6.1544   6.8929   8.0969   9.9085
     9.9427  14.6195

          k =-0.4995 0.1210 0.2781 (  3922 PWs)   bands (ev):

   -72.8840 -42.3107 -41.5264 -41.0037 -10.6356 -10.4369 -10.2824 -10.1024
     0.7108   1.2107   1.8408   2.2712   2.5846   3.4977   3.9002   4.2676
     4.5361   4.7624   4.8060   5.3301   5.9774   6.7961   7.9277   9.9971
    10.1056  15.2993

          k =-0.4998 0.1214 0.4657 (  3918 PWs)   bands (ev):

   -72.8840 -42.3107 -41.5264 -41.0037 -10.6814 -10.4541 -10.2673 -10.0607
     0.9143   1.2300   1.9707   2.3747   2.5958   3.4239   3.6776   4.2289
     4.4025   4.5172   4.9136   5.1632   5.9740   6.9644   7.9119   9.8129
    10.0637  15.8423

          k =-0.4990 0.1201-0.0972 (  3936 PWs)   bands (ev):

   -72.8840 -42.3107 -41.5264 -41.0037 -10.7195 -10.4745 -10.2503 -10.0253
     1.0782   1.3425   2.2140   2.4455   2.6492   3.1027   3.3975   4.1554
     4.3495   4.4909   4.8968   5.0346   5.9649   7.0933   7.8997   9.5977
    10.0789  16.0910

          k =-0.4992 0.2402 0.1816 (  3933 PWs)   bands (ev):

   -72.8840 -42.3107 -41.5264 -41.0037 -10.6354 -10.4377 -10.2815 -10.1029
     0.7756   1.1129   1.8484   2.2709   2.5738   3.6503   3.8612   4.2019
     4.5282   4.7505   4.8169   5.3257   5.9760   6.7995   7.9224  10.0118
    10.0809  15.6090

          k =-0.4995 0.2407 0.3692 (  3923 PWs)   bands (ev):

   -72.8840 -42.3107 -41.5264 -41.0037 -10.6806 -10.4566 -10.2649 -10.0614
     0.8987   1.2670   1.9637   2.2334   2.7978   3.3416   3.6754   4.2142
     4.4070   4.5180   4.9243   5.1718   5.9724   6.9692   7.9114   9.8019
    10.0773  15.6313

          k =-0.4987 0.2393-0.1937 (  3915 PWs)   bands (ev):

   -72.8840 -42.3107 -41.5264 -41.0037 -10.7214 -10.4684 -10.2561 -10.0236
     1.0920   1.3113   2.1809   2.5344   2.6892   3.0008   3.4679   4.1321
     4.2830   4.4841   4.8776   5.0960   5.9693   7.0977   7.8998   9.6082
    10.0707  16.0481

          k =-0.4989 0.2398-0.0061 (  3927 PWs)   bands (ev):

   -72.8840 -42.3107 -41.5264 -41.0037 -10.6806 -10.4567 -10.2647 -10.0615
     0.8989   1.2666   1.9636   2.2333   2.7982   3.3416   3.6754   4.2136
     4.4073   4.5182   4.9240   5.1718   5.9724   6.9693   7.9114   9.8014
    10.0775  15.6309

          k =-0.5002-0.1175 0.4711 (  3926 PWs)   bands (ev):

   -72.8840 -42.3107 -41.5264 -41.0037 -10.6356 -10.4370 -10.2822 -10.1025
     0.7111   1.2102   1.8407   2.2716   2.5847   3.4980   3.8998   4.2673
     4.5361   4.7624   4.8058   5.3302   5.9774   6.7964   7.9276   9.9964
    10.1062  15.2988

          k =-0.5005-0.1170 0.6588 (  3915 PWs)   bands (ev):

   -72.8840 -42.3107 -41.5264 -41.0037 -10.6814 -10.4540 -10.2673 -10.0607
     0.9144   1.2299   1.9707   2.3747   2.5956   3.4241   3.6779   4.2284
     4.4026   4.5173   4.9136   5.1633   5.9740   6.9647   7.9118   9.8129
    10.0638  15.8418

          k =-0.4997-0.1184 0.0958 (  3928 PWs)   bands (ev):

   -72.8840 -42.3107 -41.5264 -41.0037 -10.7195 -10.4744 -10.2505 -10.0252
     1.0781   1.3426   2.2139   2.4457   2.6490   3.1029   3.3973   4.1554
     4.3490   4.4911   4.8968   5.0349   5.9649   7.0935   7.8995   9.5981
    10.0788  16.0916

     the Fermi energy is     7.0454 ev

!    total energy              =    -520.62079884 Ry
     total all-electron energy =     -3720.874057 Ry
     estimated scf accuracy    <          3.9E-09 Ry
     smearing contrib. (-TS)   =      -0.00491546 Ry
     internal energy E=F+TS    =    -520.61588337 Ry

     The total energy is F=E-TS. E is the sum of the following terms:
     one-electron contribution =    -240.57317113 Ry
     hartree contribution      =     145.35818509 Ry
     xc contribution           =     -61.24961453 Ry
     ewald contribution        =    -185.65519311 Ry
     Hubbard energy            =       0.24478117 Ry
     one-center paw contrib.   =    -178.74087086 Ry

     convergence has been achieved in   7 iterations
     force_hub    :    242.59s CPU     28.50s WALL (      15 calls)
     dndtau       :    213.53s CPU     25.04s WALL (   11340 calls)
     dprojdtau    :     32.30s CPU      4.07s WALL (   11340 calls)
     calc_doverla :    112.47s CPU     13.43s WALL (   11340 calls)
     matel_dSdtau :    156.50s CPU     17.92s WALL (   22680 calls)

     Forces acting on atoms (cartesian axes, Ry/au):

     atom    1 type  1   force =    -0.00005134   -0.00014722   -0.00006516
     atom    2 type  1   force =     0.00002583   -0.00023921    0.00018115
     atom    3 type  3   force =    -0.00000886   -0.00006775    0.00002026
     atom    4 type  2   force =    -0.00000399    0.00008972    0.00010438
     atom    5 type  2   force =    -0.00000589    0.00024794   -0.00010708
     atom    6 type  2   force =    -0.00003223    0.00019892   -0.00003698
     atom    7 type  2   force =     0.00007648   -0.00008239   -0.00009658

     Total force =     0.000529     Total SCF correction =     0.000240
     SCF correction compared to forces is large: reduce conv_thr to get better values


     Computing stress (Cartesian axis) and pressure

     stres_hub    :    689.17s CPU     77.80s WALL (      15 calls)
     dprojdepsilo :    553.77s CPU     62.96s WALL (    4860 calls)
     dprojdeps1   :     60.78s CPU      7.20s WALL (    4860 calls)
     dprojdeps2   :    306.95s CPU     35.30s WALL (    4860 calls)
     dprojdeps3   :    185.84s CPU     20.45s WALL (    4860 calls)
          total   stress  (Ry/bohr**3)                   (kbar)     P=       -0.16
  -0.00000350   0.00000009  -0.00000026           -0.52        0.01       -0.04
   0.00000009   0.00000007  -0.00000028            0.01        0.01       -0.04
  -0.00000026  -0.00000028   0.00000027           -0.04       -0.04        0.04

     Energy error            =      1.5E-06 Ry
     Gradient error          =      2.5E-04 Ry/Bohr
     Cell gradient error     =      5.2E-01 kbar

     number of scf cycles    =  15
     number of bfgs steps    =  14

     enthalpy           old  =    -520.6207973353 Ry
     enthalpy           new  =    -520.6207988352 Ry

     CASE: enthalpy          _new < enthalpy          _old

     new trust radius        =       0.0009329575 bohr
     new conv_thr            =       0.0000000100 Ry

     new unit-cell volume =    487.60211 a.u.^3 (    72.25518 Ang^3 )
     density =      3.85043 g/cm^3

CELL_PARAMETERS (angstrom)
   2.961509901  -0.005249685   0.004295465
   1.491423592   6.188081483  -0.012733465
   2.961473950   3.179033092   3.937704130

ATOMIC_POSITIONS (angstrom)
Mg               3.4424958226        4.7964085123        1.4546769232
Mg               3.4373936678        1.1044771386        0.3432836041
Mn               4.9172915764        2.3313760228        2.5354094722
O                3.4452311521        6.9083967538        1.8215883084
O                4.9202551838        4.3061128147        2.8655311953
O                3.4391387795        2.7944155439        1.3617556699
O                4.9254351938        8.4122553773        3.8970867260



     Writing config-only to output data dir .\out\\qgan.save\ :
     XML data file
     NEW-OLD atomic charge density approx. for the potential
     New effective cutoffs (rho, wfc):  495.02   61.90

     Check: negative core charge=   -0.000002

     Atomic wfc used for Hubbard projectors are orthogonalized


     total cpu time spent up to now is      666.1 secs

     Self-consistent Calculation

     iteration #  1     ecut=    60.00 Ry     beta= 0.70
     Davidson diagonalization with overlap
     ethr =  1.00E-06,  avg # of iterations =  2.0

     =================== HUBBARD OCCUPATIONS ===================
     ------------------------ ATOM    3 ------------------------
     Tr[ns(  3)] =   5.23673
     eigenvalues:
       0.219  0.312  0.399  0.713  0.976
     eigenvectors (columns):
       0.535 -0.002 -0.209  0.000 -0.819
      -0.001  0.965  0.001  0.263 -0.003
      -0.806 -0.002 -0.417  0.000 -0.420
       0.254  0.003 -0.885 -0.003  0.391
      -0.001  0.263  0.003 -0.965 -0.002
     occupation matrix ns (before diag.):
       0.734  0.002  0.276 -0.209  0.001
       0.002  0.339  0.001 -0.001 -0.102
       0.276  0.001  0.384 -0.058  0.000
      -0.209 -0.001 -0.058  0.476  0.000
       0.001 -0.102  0.000  0.000  0.685

     Number of occupied Hubbard levels =    5.2367

     Threshold (ethr) on eigenvalues was too large:
     Diagonalizing with lowered threshold

     Davidson diagonalization with overlap
     ethr =  2.80E-09,  avg # of iterations =  8.9

     total cpu time spent up to now is      672.5 secs

     total energy              =    -520.62079919 Ry
     estimated scf accuracy    <       0.00000036 Ry

     iteration #  2     ecut=    60.00 Ry     beta= 0.70
     Davidson diagonalization with overlap
     ethr =  8.39E-10,  avg # of iterations =  3.3

     total cpu time spent up to now is      675.0 secs

     total energy              =    -520.62079911 Ry
     estimated scf accuracy    <       0.00000071 Ry

     iteration #  3     ecut=    60.00 Ry     beta= 0.70
     Davidson diagonalization with overlap
     ethr =  8.39E-10,  avg # of iterations =  2.0

     total cpu time spent up to now is      677.1 secs

     total energy              =    -520.62079917 Ry
     estimated scf accuracy    <       0.00000098 Ry

     iteration #  4     ecut=    60.00 Ry     beta= 0.70
     Davidson diagonalization with overlap
     ethr =  8.39E-10,  avg # of iterations =  2.0

     total cpu time spent up to now is      679.4 secs

     total energy              =    -520.62079929 Ry
     estimated scf accuracy    <       0.00000008 Ry

     iteration #  5     ecut=    60.00 Ry     beta= 0.70
     Davidson diagonalization with overlap
     ethr =  1.91E-10,  avg # of iterations =  1.9

     total cpu time spent up to now is      681.4 secs

     End of self-consistent calculation

     =================== HUBBARD OCCUPATIONS ===================
     ------------------------ ATOM    3 ------------------------
     Tr[ns(  3)] =   5.23666
     eigenvalues:
       0.219  0.312  0.399  0.712  0.976
     eigenvectors (columns):
       0.535 -0.002 -0.209 -0.000 -0.819
      -0.001  0.965  0.001  0.263 -0.003
      -0.806 -0.002 -0.417  0.000 -0.420
       0.254  0.003 -0.885 -0.003  0.391
      -0.001  0.263  0.003 -0.965 -0.002
     occupation matrix ns (before diag.):
       0.734  0.002  0.276 -0.209  0.001
       0.002  0.339  0.001 -0.001 -0.102
       0.276  0.001  0.384 -0.058  0.000
      -0.209 -0.001 -0.058  0.476  0.000
       0.001 -0.102  0.000  0.000  0.685

     Number of occupied Hubbard levels =    5.2367

          k = 0.0000 0.0000 0.0000 (  3893 PWs)   bands (ev):

   -72.8883 -42.3159 -41.5368 -40.9246 -11.8810 -10.5530 -10.2833 -10.0592
     0.8180   1.4927   2.2396   2.7009   3.0765   3.9173   4.0945   4.3657
     4.6273   5.4144   5.6227   5.6737   6.0595   7.1403   7.9970  10.0771
    10.3382  11.7324

          k =-0.0003 0.0005 0.1876 (  3895 PWs)   bands (ev):

   -72.8883 -42.3160 -41.5368 -40.9246 -11.6844 -10.7078 -10.3540 -10.0975
     1.0152   1.7991   1.9769   3.0786   3.0823   3.8796   4.0203   4.4765
     4.5951   4.9624   5.5674   5.5975   5.7605   7.0982   8.0996   9.7864
    10.3799  12.8496

          k = 0.0005-0.0009-0.3753 (  3894 PWs)   bands (ev):

   -72.8882 -42.3160 -41.5368 -40.9246 -11.3541 -10.9817 -10.4256 -10.1510
     1.2730   1.8283   2.5164   3.0138   3.0747   3.4801   3.8739   4.5490
     4.5666   4.8294   5.4782   5.5168   5.6274   7.0552   8.1825   9.5440
    10.4225  14.4690

          k = 0.0004 0.1192-0.0965 (  3889 PWs)   bands (ev):

   -72.8883 -42.3159 -41.5368 -40.9246 -11.7761 -10.5802 -10.4190 -10.0425
     1.0399   1.5135   2.1950   2.7958   3.1116   3.9384   4.1121   4.3125
     4.6876   5.0216   5.4819   5.6259   6.0633   7.1645   7.9910  10.1425
    10.3780  12.5218

          k = 0.0001 0.1197 0.0911 (  3904 PWs)   bands (ev):

   -72.8883 -42.3160 -41.5368 -40.9246 -11.7290 -10.7896 -10.2462 -10.0526
     0.9524   1.7947   2.1061   2.8934   3.0442   3.8035   3.9177   4.4818
     4.6136   5.2153   5.5793   5.5815   5.8382   7.1350   8.0960   9.7925
    10.3393  12.4971

          k = 0.0009 0.1183-0.4718 (  3922 PWs)   bands (ev):

   -72.8883 -42.3161 -41.5368 -40.9246 -11.4044 -11.0620 -10.3249 -10.0939
     1.3106   1.6552   2.4293   3.0431   3.1503   3.5073   3.9007   4.3298
     4.5849   5.0772   5.4367   5.4943   5.6741   7.0914   8.1996   9.5547
    10.3817  13.8590

          k = 0.0006 0.1188-0.2842 (  3906 PWs)   bands (ev):

   -72.8882 -42.3160 -41.5368 -40.9246 -11.5319 -10.7870 -10.4838 -10.0829
     1.2373   1.7899   2.2194   2.9694   3.1114   3.8310   3.8975   4.4312
     4.5016   4.8976   5.4435   5.5451   5.7672   7.1252   8.1203   9.8653
    10.4196  14.0964

          k =-0.0007-0.2385 0.1930 (  3908 PWs)   bands (ev):

   -72.8883 -42.3159 -41.5368 -40.9246 -11.6423 -10.6784 -10.5084 -10.0291
     1.0175   1.8612   2.3994   2.8200   3.1491   3.6043   3.9631   4.2543
     4.5754   4.9935   5.4729   5.5774   6.0644   7.1889   7.9827  10.2124
    10.4173  13.8363

          k =-0.0010-0.2380 0.3807 (  3906 PWs)   bands (ev):

   -72.8883 -42.3160 -41.5368 -40.9246 -11.5904 -10.8592 -10.3698 -10.0405
     1.3395   1.7477   2.0057   2.9060   3.0750   3.8039   3.9396   4.4351
     4.7323   4.8775   5.4299   5.5276   5.8043   7.1604   8.1270   9.8766
    10.3791  13.4208

          k =-0.0002-0.2394-0.1823 (  3902 PWs)   bands (ev):

   -72.8883 -42.3161 -41.5368 -40.9246 -11.4469 -11.1315 -10.2296 -10.0499
     1.1577   1.8294   2.3148   3.0133   3.0267   3.7066   3.9293   4.0943
     4.5958   5.1763   5.4779   5.5516   5.7313   7.1260   8.1659   9.5451
    10.3408  13.7605

          k = 0.2498-0.0605-0.1390 (  3913 PWs)   bands (ev):

   -72.8854 -42.3130 -41.5312 -40.9637 -11.3233 -10.5800 -10.2135 -10.0412
     1.4057   1.6758   2.1277   2.4325   2.7803   3.0138   3.8364   4.0081
     4.2801   5.0102   5.2987   5.5100   6.1190   6.9809   8.0201   9.6912
    10.1041  13.9435

          k = 0.2495-0.0600 0.0486 (  3893 PWs)   bands (ev):

   -72.8854 -42.3129 -41.5312 -40.9637 -11.4223 -10.4532 -10.2590 -10.0076
     1.4224   1.8132   2.0456   2.4460   2.8263   2.8675   3.7108   3.9881
     4.2875   5.0276   5.3850   5.5596   6.0445   7.0709   7.9477   9.7589
    10.0793  13.5902

          k = 0.2504-0.0614-0.5143 (  3919 PWs)   bands (ev):

   -72.8854 -42.3130 -41.5312 -40.9637 -11.2275 -10.5491 -10.3455 -10.0607
     1.3247   1.6837   2.2015   2.5541   2.6746   3.0084   3.9981   4.1226
     4.3873   4.9237   5.0548   5.4753   6.1617   6.9695   8.0160   9.6472
    10.0350  14.7137

          k = 0.2501-0.0609-0.3267 (  3917 PWs)   bands (ev):

   -72.8854 -42.3130 -41.5312 -40.9637 -11.0421 -10.7613 -10.2964 -10.1000
     1.3369   1.6527   2.0964   2.4469   2.7324   3.3570   3.9188   4.2014
     4.3839   4.8548   5.0001   5.4608   6.1842   6.8931   8.0837   9.8112
     9.8588  15.1069

          k = 0.2502 0.0587-0.2356 (  3917 PWs)   bands (ev):

   -72.8854 -42.3130 -41.5312 -40.9637 -11.2275 -10.5491 -10.3455 -10.0607
     1.3249   1.6837   2.2016   2.5535   2.6748   3.0083   3.9979   4.1225
     4.3872   4.9239   5.0550   5.4752   6.1617   6.9700   8.0156   9.6480
    10.0345  14.7136

          k = 0.2499 0.0592-0.0479 (  3896 PWs)   bands (ev):

   -72.8854 -42.3129 -41.5312 -40.9637 -11.4223 -10.4532 -10.2590 -10.0076
     1.4224   1.8132   2.0453   2.4462   2.8261   2.8679   3.7107   3.9883
     4.2873   5.0276   5.3850   5.5596   6.0445   7.0709   7.9476   9.7589
    10.0794  13.5902

          k = 0.2507 0.0578-0.6109 (  3911 PWs)   bands (ev):

   -72.8854 -42.3130 -41.5312 -40.9637 -11.3233 -10.5800 -10.2135 -10.0412
     1.4056   1.6757   2.1277   2.4324   2.7806   3.0140   3.8364   4.0085
     4.2800   5.0099   5.2984   5.5101   6.1191   6.9806   8.0203   9.6906
    10.1045  13.9435

          k = 0.2504 0.0583-0.4232 (  3914 PWs)   bands (ev):

   -72.8854 -42.3130 -41.5312 -40.9637 -11.0421 -10.7614 -10.2964 -10.1000
     1.3369   1.6526   2.0965   2.4470   2.7322   3.3569   3.9190   4.2014
     4.3838   4.8549   4.9999   5.4609   6.1843   6.8932   8.0837   9.8116
     9.8583  15.1068

          k = 0.2491-0.2989 0.0540 (  3925 PWs)   bands (ev):

   -72.8854 -42.3130 -41.5312 -40.9637 -11.1575 -10.6480 -10.3426 -10.0458
     1.4709   1.8454   2.1107   2.4658   2.6738   3.1214   3.7065   4.0370
     4.3744   4.8962   5.1106   5.5293   6.1545   6.9806   8.0309   9.6637
    10.1189  14.7141

          k = 0.2488-0.2985 0.2417 (  3914 PWs)   bands (ev):

   -72.8854 -42.3129 -41.5312 -40.9637 -11.2890 -10.4736 -10.4033 -10.0108
     1.3840   1.9725   2.2633   2.5115   2.6663   2.8892   3.5500   3.9488
     4.4763   4.9099   5.1584   5.5876   6.1142   7.0852   7.9355   9.7076
    10.0842  14.5004

          k = 0.2497-0.2999-0.3213 (  3912 PWs)   bands (ev):

   -72.8854 -42.3130 -41.5312 -40.9637 -11.2715 -10.6429 -10.2249 -10.0299
     1.6128   1.7834   1.9371   2.5653   2.7886   3.0483   3.5680   3.8880
     4.1486   5.0692   5.3487   5.5693   6.1090   6.9851   8.0317   9.7199
    10.1884  13.8693

          k = 0.2494-0.2994-0.1336 (  3920 PWs)   bands (ev):

   -72.8854 -42.3130 -41.5312 -40.9637 -11.0635 -10.8659 -10.1956 -10.0603
     1.5734   1.7192   1.9750   2.5669   2.7530   3.1037   3.5079   4.1683
     4.2895   4.8408   5.3154   5.5387   6.1557   6.8939   8.0976   9.9101
     9.9436  14.6221

          k = 0.2495-0.1797-0.0425 (  3912 PWs)   bands (ev):

   -72.8854 -42.3130 -41.5312 -40.9637 -11.2716 -10.6429 -10.2249 -10.0299
     1.6130   1.7836   1.9371   2.5653   2.7883   3.0476   3.5682   3.8874
     4.1489   5.0693   5.3488   5.5695   6.1090   6.9853   8.0315   9.7204
    10.1881  13.8693

          k = 0.2492-0.1793 0.1451 (  3920 PWs)   bands (ev):

   -72.8854 -42.3129 -41.5312 -40.9638 -11.2890 -10.4735 -10.4032 -10.0108
     1.3841   1.9724   2.2633   2.5119   2.6657   2.8892   3.5500   3.9488
     4.4765   4.9098   5.1584   5.5876   6.1142   7.0851   7.9356   9.7075
    10.0842  14.5003

          k = 0.2500-0.1806-0.4178 (  3924 PWs)   bands (ev):

   -72.8854 -42.3130 -41.5312 -40.9637 -11.1575 -10.6480 -10.3426 -10.0458
     1.4704   1.8453   2.1106   2.4659   2.6741   3.1218   3.7066   4.0373
     4.3742   4.8962   5.1106   5.5292   6.1543   6.9802   8.0313   9.6631
    10.1194  14.7144

          k = 0.2497-0.1802-0.2302 (  3914 PWs)   bands (ev):

   -72.8854 -42.3130 -41.5312 -40.9637 -11.0635 -10.8659 -10.1956 -10.0603
     1.5734   1.7191   1.9750   2.5667   2.7534   3.1037   3.5079   4.1685
     4.2895   4.8409   5.3155   5.5386   6.1557   6.8938   8.0976   9.9098
     9.9440  14.6221

          k =-0.4996 0.1210 0.2781 (  3922 PWs)   bands (ev):

   -72.8831 -42.3099 -41.5256 -41.0025 -10.6353 -10.4362 -10.2821 -10.1010
     0.7114   1.2109   1.8414   2.2715   2.5850   3.4977   3.9008   4.2680
     4.5369   4.7628   4.8064   5.3299   5.9795   6.7971   7.9282   9.9984
    10.1072  15.3005

          k =-0.4999 0.1214 0.4657 (  3918 PWs)   bands (ev):

   -72.8830 -42.3099 -41.5256 -41.0025 -10.6810 -10.4534 -10.2670 -10.0593
     0.9149   1.2301   1.9712   2.3750   2.5963   3.4243   3.6779   4.2294
     4.4032   4.5177   4.9137   5.1630   5.9762   6.9654   7.9124   9.8137
    10.0659  15.8446

          k =-0.4991 0.1201-0.0972 (  3936 PWs)   bands (ev):

   -72.8830 -42.3099 -41.5256 -41.0025 -10.7190 -10.4738 -10.2501 -10.0239
     1.0786   1.3427   2.2146   2.4457   2.6498   3.1031   3.3978   4.1558
     4.3503   4.4914   4.8964   5.0346   5.9670   7.0943   7.9002   9.5984
    10.0811  16.0931

          k =-0.4993 0.2402 0.1816 (  3933 PWs)   bands (ev):

   -72.8831 -42.3099 -41.5256 -41.0025 -10.6351 -10.4370 -10.2812 -10.1014
     0.7761   1.1132   1.8489   2.2714   2.5742   3.6502   3.8619   4.2023
     4.5288   4.7510   4.8174   5.3255   5.9781   6.8005   7.9229  10.0131
    10.0825  15.6110

          k =-0.4995 0.2407 0.3692 (  3923 PWs)   bands (ev):

   -72.8830 -42.3099 -41.5256 -41.0025 -10.6802 -10.4559 -10.2646 -10.0600
     0.8992   1.2672   1.9642   2.2338   2.7982   3.3419   3.6758   4.2149
     4.4076   4.5184   4.9244   5.1715   5.9745   6.9701   7.9119   9.8027
    10.0795  15.6329

          k =-0.4987 0.2393-0.1937 (  3915 PWs)   bands (ev):

   -72.8830 -42.3099 -41.5256 -41.0025 -10.7209 -10.4678 -10.2559 -10.0223
     1.0925   1.3116   2.1815   2.5350   2.6897   3.0013   3.4682   4.1325
     4.2838   4.4846   4.8773   5.0959   5.9715   7.0986   7.9003   9.6089
    10.0729  16.0506

          k =-0.4990 0.2398-0.0061 (  3927 PWs)   bands (ev):

   -72.8830 -42.3099 -41.5256 -41.0025 -10.6802 -10.4560 -10.2645 -10.0601
     0.8994   1.2669   1.9643   2.2337   2.7986   3.3418   3.6758   4.2144
     4.4077   4.5186   4.9241   5.1715   5.9746   6.9702   7.9119   9.8022
    10.0796  15.6329

          k =-0.5003-0.1175 0.4711 (  3926 PWs)   bands (ev):

   -72.8831 -42.3099 -41.5256 -41.0025 -10.6353 -10.4363 -10.2819 -10.1011
     0.7116   1.2105   1.8413   2.2719   2.5853   3.4980   3.9004   4.2676
     4.5369   4.7627   4.8063   5.3299   5.9795   6.7974   7.9281   9.9978
    10.1077  15.3004

          k =-0.5006-0.1170 0.6588 (  3915 PWs)   bands (ev):

   -72.8830 -42.3099 -41.5256 -41.0025 -10.6810 -10.4534 -10.2670 -10.0594
     0.9149   1.2301   1.9712   2.3751   2.5962   3.4244   3.6780   4.2290
     4.4032   4.5178   4.9137   5.1630   5.9762   6.9657   7.9123   9.8137
    10.0660  15.8440

          k =-0.4998-0.1184 0.0958 (  3928 PWs)   bands (ev):

   -72.8830 -42.3099 -41.5256 -41.0025 -10.7190 -10.4737 -10.2503 -10.0239
     1.0785   1.3429   2.2146   2.4459   2.6499   3.1032   3.3976   4.1558
     4.3499   4.4915   4.8963   5.0348   5.9671   7.0944   7.9001   9.5988
    10.0810  16.0934

     the Fermi energy is     7.0463 ev

!    total energy              =    -520.62079930 Ry
     total all-electron energy =     -3720.874058 Ry
     estimated scf accuracy    <          3.5E-09 Ry
     smearing contrib. (-TS)   =      -0.00491476 Ry
     internal energy E=F+TS    =    -520.61588454 Ry

     The total energy is F=E-TS. E is the sum of the following terms:
     one-electron contribution =    -240.57288475 Ry
     hartree contribution      =     145.35925846 Ry
     xc contribution           =     -61.24992151 Ry
     ewald contribution        =    -185.65619490 Ry
     Hubbard energy            =       0.24477955 Ry
     one-center paw contrib.   =    -178.74092140 Ry

     convergence has been achieved in   5 iterations
     force_hub    :    257.81s CPU     30.39s WALL (      16 calls)
     dndtau       :    226.75s CPU     26.71s WALL (   12096 calls)
     dprojdtau    :     34.31s CPU      4.36s WALL (   12096 calls)
     calc_doverla :    119.30s CPU     14.31s WALL (   12096 calls)
     matel_dSdtau :    166.11s CPU     19.10s WALL (   24192 calls)

     Forces acting on atoms (cartesian axes, Ry/au):

     atom    1 type  1   force =    -0.00005546   -0.00010545   -0.00005725
     atom    2 type  1   force =     0.00001613   -0.00017264    0.00005207
     atom    3 type  3   force =     0.00000285   -0.00005715    0.00015324
     atom    4 type  2   force =     0.00000405    0.00001522    0.00004802
     atom    5 type  2   force =     0.00000448    0.00013957   -0.00010868
     atom    6 type  2   force =    -0.00003265    0.00018211   -0.00000051
     atom    7 type  2   force =     0.00006059   -0.00000166   -0.00008689

     Total force =     0.000395     Total SCF correction =     0.000156
     SCF correction compared to forces is large: reduce conv_thr to get better values


     Computing stress (Cartesian axis) and pressure

     stres_hub    :    726.47s CPU     83.02s WALL (      16 calls)
     dprojdepsilo :    582.77s CPU     67.19s WALL (    5184 calls)
     dprojdeps1   :     64.80s CPU      7.68s WALL (    5184 calls)
     dprojdeps2   :    321.27s CPU     37.63s WALL (    5184 calls)
     dprojdeps3   :    196.50s CPU     21.85s WALL (    5184 calls)
          total   stress  (Ry/bohr**3)                   (kbar)     P=       -0.03
  -0.00000049   0.00000017  -0.00000020           -0.07        0.02       -0.03
   0.00000017  -0.00000007   0.00000005            0.02       -0.01        0.01
  -0.00000020   0.00000005  -0.00000001           -0.03        0.01       -0.00

     Energy error            =      4.6E-07 Ry
     Gradient error          =      1.8E-04 Ry/Bohr
     Cell gradient error     =      7.3E-02 kbar

     bfgs converged in  16 scf cycles and  15 bfgs steps
     (criteria: energy <  1.0E-04 Ry, force <  1.0E-03 Ry/Bohr, cell <  5.0E-01 kbar)

     End of BFGS Geometry Optimization

     Final enthalpy           =    -520.6207992987 Ry

     File .\out\\qgan.bfgs deleted, as requested
Begin final coordinates
     new unit-cell volume =    487.60211 a.u.^3 (    72.25518 Ang^3 )
     density =      3.85043 g/cm^3

CELL_PARAMETERS (angstrom)
   2.961509901  -0.005249685   0.004295465
   1.491423592   6.188081483  -0.012733465
   2.961473950   3.179033092   3.937704130

ATOMIC_POSITIONS (angstrom)
Mg               3.4424958226        4.7964085123        1.4546769232
Mg               3.4373936678        1.1044771386        0.3432836041
Mn               4.9172915764        2.3313760228        2.5354094722
O                3.4452311521        6.9083967538        1.8215883084
O                4.9202551838        4.3061128147        2.8655311953
O                3.4391387795        2.7944155439        1.3617556699
O                4.9254351938        8.4122553773        3.8970867260
End final coordinates



     Writing config-only to output data dir .\out\\qgan.save\ :
     XML data file

     Final scf calculation at the relaxed structure.
     The G-vectors are recalculated for the final unit cell
     Results may differ from those at the preceding step.
 
     G-vector sticks info
     --------------------
     sticks:   dense  smooth     PW     G-vecs:    dense   smooth      PW
     Sum        2499    1245    391                86581    30627    5417
 
     Using Slab Decomposition
 


     bravais-lattice index     =            0
     lattice parameter (alat)  =       5.5901  a.u.
     unit-cell volume          =     487.6021 (a.u.)^3
     number of atoms/cell      =            7
     number of atomic types    =            3
     number of electrons       =        43.00
     number of Kohn-Sham states=           26
     kinetic-energy cutoff     =      60.0000  Ry
     charge density cutoff     =     480.0000  Ry
     scf convergence threshold =      1.0E-08
     mixing beta               =       0.7000
     number of iterations used =            8  plain     mixing
     press convergence thresh. =      5.0E-01
     Exchange-correlation= SLA  PW   PBX  PBC
                           (   1   4   3   4   0   0   0)
     Hubbard projectors: ortho-atomic
     Hubbard parameters of DFT+U (Dudarev formulation) in eV:
     U(Mn-3d) =  3.9000

     Internal variables: lda_plus_u = T, lda_plus_u_kind = 0

     Internal variables: orbital_resolved = F, hub_pot_fix = F, apply_U =  F

     celldm(1)=   5.590118  celldm(2)=   0.000000  celldm(3)=   0.000000
     celldm(4)=   0.000000  celldm(5)=   0.000000  celldm(6)=   0.000000

     crystal axes: (cart. coord. in units of alat)
               a(1) = (   1.001131  -0.001775   0.001452 )  
               a(2) = (   0.504172   2.091866  -0.004305 )  
               a(3) = (   1.001119   1.074665   1.331132 )  

     reciprocal axes: (cart. coord. in units 2 pi/alat)
               b(1) = (  0.999248 -0.241979 -0.556159 )  
               b(2) = (  0.001405  0.476909 -0.386081 )  
               b(3) = ( -0.001085  0.001806  0.750599 )  


     PseudoPot. # 1 for Mg read from file:
     ..\..\pseudo\\Mg.pbe-n-kjpaw_psl.0.3.0.UPF
     MD5 check sum: d3e4124f57d03672d8f0e29aa18e2cc4
     Pseudo is Projector augmented-wave + core cor, Zval =  2.0
     Generated using &quot;atomic&quot; code by A. Dal Corso  v.6.3
     Shape of augmentation charge: PSQ
     Using radial grid of 1129 points,  4 beta functions with: 
                l(1) =   0
                l(2) =   0
                l(3) =   1
                l(4) =   1
     Q(r) pseudized with 0 coefficients 


     PseudoPot. # 2 for O  read from file:
     ..\..\pseudo\\O.pbe-n-kjpaw_psl.1.0.0.UPF
     MD5 check sum: e99d9cef9b487d1ca56f5b95ecd0fd7a
     Pseudo is Projector augmented-wave + core cor, Zval =  6.0
     Generated using &quot;atomic&quot; code by A. Dal Corso  v.6.3
     Shape of augmentation charge: PSQ
     Using radial grid of 1095 points,  4 beta functions with: 
                l(1) =   0
                l(2) =   0
                l(3) =   1
                l(4) =   1
     Q(r) pseudized with 0 coefficients 


     PseudoPot. # 3 for Mn read from file:
     ..\..\pseudo\\Mn.pbe-spn-kjpaw_psl.0.3.1.UPF
     MD5 check sum: ba19e6d7ccbc12830efad05ba8577d9c
     Pseudo is Projector augmented-wave + core cor, Zval = 15.0
     Generated using &quot;atomic&quot; code by A. Dal Corso  v.6.2.2
     Shape of augmentation charge: PSQ
     Using radial grid of 1187 points,  6 beta functions with: 
                l(1) =   0
                l(2) =   0
                l(3) =   1
                l(4) =   1
                l(5) =   2
                l(6) =   2
     Q(r) pseudized with 0 coefficients 


     atomic species   valence    mass     pseudopotential
     Mg                2.00    24.30500     Mg( 1.00)
     O                 6.00    15.99900     O ( 1.00)
     Mn               15.00    54.93800     Mn( 1.00)

     No symmetry found



   Cartesian axes

     site n.     atom                  positions (alat units)
         1        Mg     tau(   1) = (   1.1637276   1.6214145   0.4917501  )
         2        Mg     tau(   2) = (   1.1620028   0.3733659   0.1160462  )
         3        Mn     tau(   3) = (   1.6622788   0.7881161   0.8570892  )
         4        O      tau(   4) = (   1.1646522   2.3353672   0.6157836  )
         5        O      tau(   5) = (   1.6632806   1.4556712   0.9686860  )
         6        O      tau(   6) = (   1.1625927   0.9446456   0.4603383  )
         7        O      tau(   7) = (   1.6650317   2.8437430   1.3174009  )

     number of k points=    36  Marzari-Vanderbilt smearing, width (Ry)=  0.0200
                       cart. coord. in units 2pi/alat
        k(    1) = (   0.0000000   0.0000000   0.0000000), wk =   0.0312500
        k(    2) = (  -0.0002714   0.0004515   0.1876497), wk =   0.0625000
        k(    3) = (   0.0005427  -0.0009031  -0.3752994), wk =   0.0312500
        k(    4) = (   0.0003513   0.1192272  -0.0965201), wk =   0.0625000
        k(    5) = (   0.0000800   0.1196788   0.0911295), wk =   0.0625000
        k(    6) = (   0.0008941   0.1183241  -0.4718195), wk =   0.0625000
        k(    7) = (   0.0006227   0.1187757  -0.2841698), wk =   0.0625000
        k(    8) = (  -0.0007027  -0.2384544   0.1930403), wk =   0.0312500
        k(    9) = (  -0.0009741  -0.2380029   0.3806900), wk =   0.0625000
        k(   10) = (  -0.0001599  -0.2393575  -0.1822591), wk =   0.0312500
        k(   11) = (   0.2498119  -0.0604946  -0.1390396), wk =   0.0625000
        k(   12) = (   0.2495405  -0.0600431   0.0486101), wk =   0.0625000
        k(   13) = (   0.2503546  -0.0613977  -0.5143390), wk =   0.0625000
        k(   14) = (   0.2500833  -0.0609462  -0.3266893), wk =   0.0625000
        k(   15) = (   0.2501632   0.0587326  -0.2355598), wk =   0.0625000
        k(   16) = (   0.2498919   0.0591841  -0.0479101), wk =   0.0625000
        k(   17) = (   0.2507060   0.0578295  -0.6108592), wk =   0.0625000
        k(   18) = (   0.2504346   0.0582810  -0.4232095), wk =   0.0625000
        k(   19) = (   0.2491092  -0.2989491   0.0540006), wk =   0.0625000
        k(   20) = (   0.2488378  -0.2984975   0.2416503), wk =   0.0625000
        k(   21) = (   0.2496520  -0.2998522  -0.3212987), wk =   0.0625000
        k(   22) = (   0.2493806  -0.2994006  -0.1336490), wk =   0.0625000
        k(   23) = (   0.2494606  -0.1797219  -0.0425195), wk =   0.0625000
        k(   24) = (   0.2491892  -0.1792703   0.1451302), wk =   0.0625000
        k(   25) = (   0.2500033  -0.1806249  -0.4178189), wk =   0.0625000
        k(   26) = (   0.2497319  -0.1801734  -0.2301692), wk =   0.0625000
        k(   27) = (  -0.4996238   0.1209893   0.2780793), wk =   0.0312500
        k(   28) = (  -0.4998952   0.1214408   0.4657290), wk =   0.0625000
        k(   29) = (  -0.4990811   0.1200862  -0.0972201), wk =   0.0312500
        k(   30) = (  -0.4992725   0.2402165   0.1815591), wk =   0.0625000
        k(   31) = (  -0.4995438   0.2406681   0.3692088), wk =   0.0625000
        k(   32) = (  -0.4987297   0.2393134  -0.1937402), wk =   0.0625000
        k(   33) = (  -0.4990011   0.2397650  -0.0060906), wk =   0.0625000
        k(   34) = (  -0.5003265  -0.1174651   0.4711195), wk =   0.0312500
        k(   35) = (  -0.5005979  -0.1170136   0.6587692), wk =   0.0625000
        k(   36) = (  -0.4997837  -0.1183682   0.0958202), wk =   0.0312500

     Dense  grid:    86581 G-vectors     FFT dimensions: (  40,  90,  80)

     Smooth grid:    30627 G-vectors     FFT dimensions: (  27,  60,  60)

     Estimated max dynamical RAM per process >     409.59 MB

     Check: negative core charge=   -0.000002

     Initial potential from superposition of free atoms

     starting charge      42.9976, renormalised to      43.0000

     STARTING HUBBARD OCCUPATIONS:

     =================== HUBBARD OCCUPATIONS ===================
     ------------------------ ATOM    3 ------------------------
     Tr[ns(  3)] =   5.00000
     eigenvalues:
       0.500  0.500  0.500  0.500  0.500
     eigenvectors (columns):
       1.000  0.000  0.000  0.000  0.000
       0.000  1.000  0.000  0.000  0.000
       0.000  0.000  1.000  0.000  0.000
       0.000  0.000  0.000  1.000  0.000
       0.000  0.000  0.000  0.000  1.000
     occupation matrix ns (before diag.):
       0.500  0.000  0.000  0.000  0.000
       0.000  0.500  0.000  0.000  0.000
       0.000  0.000  0.500  0.000  0.000
       0.000  0.000  0.000  0.500  0.000
       0.000  0.000  0.000  0.000  0.500

     Number of occupied Hubbard levels =    5.0000

     Atomic wfc used for Hubbard projectors are orthogonalized

     Starting wfcs are   34 randomized atomic wfcs
     Checking if some PAW data can be deallocated... 

     total cpu time spent up to now is      692.0 secs

     Self-consistent Calculation

     iteration #  1     ecut=    60.00 Ry     beta= 0.70
     Davidson diagonalization with overlap
     c_bands:  1 eigenvalues not converged
     c_bands:  5 eigenvalues not converged
     c_bands:  5 eigenvalues not converged
     c_bands:  1 eigenvalues not converged
     c_bands:  1 eigenvalues not converged
     c_bands:  1 eigenvalues not converged
     c_bands:  1 eigenvalues not converged
     c_bands:  1 eigenvalues not converged
     c_bands:  4 eigenvalues not converged
     c_bands:  1 eigenvalues not converged
     c_bands:  1 eigenvalues not converged
     ethr =  1.00E-06,  avg # of iterations = 36.2

     =================== HUBBARD OCCUPATIONS ===================
     ------------------------ ATOM    3 ------------------------
     Tr[ns(  3)] =   4.09960
     eigenvalues:
       0.088  0.177  0.225  0.577  0.983
     eigenvectors (columns):
       0.533 -0.002  0.263 -0.001 -0.804
      -0.000  0.965 -0.002  0.262 -0.004
      -0.805 -0.001  0.449  0.001 -0.387
       0.260  0.004  0.854 -0.003  0.451
      -0.002  0.262 -0.003 -0.965 -0.002
     occupation matrix ns (before diag.):
       0.676  0.002  0.295 -0.294  0.002
       0.002  0.204  0.001 -0.002 -0.101
       0.295  0.001  0.250 -0.104 -0.000
      -0.294 -0.002 -0.104  0.370  0.000
       0.002 -0.101 -0.000  0.000  0.549

     Number of occupied Hubbard levels =    4.0996

     total cpu time spent up to now is      704.2 secs

     total energy              =    -519.25554742 Ry
     estimated scf accuracy    <       2.43294946 Ry

     iteration #  2     ecut=    60.00 Ry     beta= 0.70
     Davidson diagonalization with overlap
     ethr =  5.66E-03,  avg # of iterations =  4.0

     total cpu time spent up to now is      706.9 secs

     total energy              =    -517.66872056 Ry
     estimated scf accuracy    <      30.56631168 Ry

     iteration #  3     ecut=    60.00 Ry     beta= 0.70
     Davidson diagonalization with overlap
     ethr =  5.66E-03,  avg # of iterations =  3.2

     total cpu time spent up to now is      709.3 secs

     total energy              =    -520.50557303 Ry
     estimated scf accuracy    <       0.60207483 Ry

     iteration #  4     ecut=    60.00 Ry     beta= 0.70
     Davidson diagonalization with overlap
     ethr =  1.40E-03,  avg # of iterations =  2.1

     total cpu time spent up to now is      711.6 secs

     total energy              =    -520.57503738 Ry
     estimated scf accuracy    <       0.10457604 Ry

     iteration #  5     ecut=    60.00 Ry     beta= 0.70
     Davidson diagonalization with overlap
     ethr =  2.43E-04,  avg # of iterations =  4.1

     total cpu time spent up to now is      714.1 secs

     total energy              =    -520.60914191 Ry
     estimated scf accuracy    <       0.03516638 Ry

     iteration #  6     ecut=    60.00 Ry     beta= 0.70
     Davidson diagonalization with overlap
     ethr =  8.18E-05,  avg # of iterations =  2.0

     total cpu time spent up to now is      716.3 secs

     total energy              =    -520.61737017 Ry
     estimated scf accuracy    <       0.01805605 Ry

     iteration #  7     ecut=    60.00 Ry     beta= 0.70
     Davidson diagonalization with overlap
     ethr =  4.20E-05,  avg # of iterations =  2.0

     total cpu time spent up to now is      718.4 secs

     total energy              =    -520.61801082 Ry
     estimated scf accuracy    <       0.00600442 Ry

     iteration #  8     ecut=    60.00 Ry     beta= 0.70
     Davidson diagonalization with overlap
     ethr =  1.40E-05,  avg # of iterations =  2.2

     total cpu time spent up to now is      720.6 secs

     total energy              =    -520.61956029 Ry
     estimated scf accuracy    <       0.00187155 Ry

     iteration #  9     ecut=    60.00 Ry     beta= 0.70
     Davidson diagonalization with overlap
     ethr =  4.35E-06,  avg # of iterations =  7.1

     total cpu time spent up to now is      723.5 secs

     total energy              =    -520.62017121 Ry
     estimated scf accuracy    <       0.00044254 Ry

     iteration # 10     ecut=    60.00 Ry     beta= 0.70
     Davidson diagonalization with overlap
     ethr =  1.03E-06,  avg # of iterations =  4.8

     total cpu time spent up to now is      726.0 secs

     total energy              =    -520.62024398 Ry
     estimated scf accuracy    <       0.00011969 Ry

     iteration # 11     ecut=    60.00 Ry     beta= 0.70
     Davidson diagonalization with overlap
     c_bands:  1 eigenvalues not converged
     ethr =  2.78E-07,  avg # of iterations =  9.1

     total cpu time spent up to now is      729.3 secs

     total energy              =    -520.62033353 Ry
     estimated scf accuracy    <       0.00002076 Ry

     iteration # 12     ecut=    60.00 Ry     beta= 0.70
     Davidson diagonalization with overlap
     ethr =  4.83E-08,  avg # of iterations = 10.2

     total cpu time spent up to now is      732.9 secs

     total energy              =    -520.62035050 Ry
     estimated scf accuracy    <       0.00002278 Ry

     iteration # 13     ecut=    60.00 Ry     beta= 0.70
     Davidson diagonalization with overlap
     ethr =  4.83E-08,  avg # of iterations =  2.6

     total cpu time spent up to now is      735.1 secs

     total energy              =    -520.62035498 Ry
     estimated scf accuracy    <       0.00000054 Ry

     iteration # 14     ecut=    60.00 Ry     beta= 0.70
     Davidson diagonalization with overlap
     c_bands:  4 eigenvalues not converged
     c_bands:  1 eigenvalues not converged
     c_bands:  5 eigenvalues not converged
     c_bands:  5 eigenvalues not converged
     c_bands:  2 eigenvalues not converged
     c_bands:  3 eigenvalues not converged
     c_bands:  5 eigenvalues not converged
     c_bands:  3 eigenvalues not converged
     c_bands:  3 eigenvalues not converged
     c_bands:  1 eigenvalues not converged
     c_bands:  1 eigenvalues not converged
     c_bands:  5 eigenvalues not converged
     c_bands:  5 eigenvalues not converged
     ethr =  1.25E-09,  avg # of iterations = 24.3

     total cpu time spent up to now is      743.2 secs

     total energy              =    -520.62036124 Ry
     estimated scf accuracy    <       0.00000228 Ry

     iteration # 15     ecut=    60.00 Ry     beta= 0.70
     Davidson diagonalization with overlap
     ethr =  1.25E-09,  avg # of iterations =  3.7

     total cpu time spent up to now is      745.6 secs

     total energy              =    -520.62036107 Ry
     estimated scf accuracy    <       0.00000140 Ry

     iteration # 16     ecut=    60.00 Ry     beta= 0.70
     Davidson diagonalization with overlap
     ethr =  1.25E-09,  avg # of iterations =  2.0

     total cpu time spent up to now is      747.8 secs

     total energy              =    -520.62036095 Ry
     estimated scf accuracy    <       0.00000056 Ry

     iteration # 17     ecut=    60.00 Ry     beta= 0.70
     Davidson diagonalization with overlap
     ethr =  1.25E-09,  avg # of iterations =  4.9

     total cpu time spent up to now is      750.4 secs

     total energy              =    -520.62036126 Ry
     estimated scf accuracy    <       0.00000008 Ry

     iteration # 18     ecut=    60.00 Ry     beta= 0.70
     Davidson diagonalization with overlap
     ethr =  1.97E-10,  avg # of iterations =  8.8

     total cpu time spent up to now is      753.9 secs

     total energy              =    -520.62036118 Ry
     estimated scf accuracy    <       0.00000030 Ry

     iteration # 19     ecut=    60.00 Ry     beta= 0.70
     Davidson diagonalization with overlap
     ethr =  1.97E-10,  avg # of iterations =  8.0

     total cpu time spent up to now is      757.7 secs

     total energy              =    -520.62036138 Ry
     estimated scf accuracy    <       0.00000019 Ry

     iteration # 20     ecut=    60.00 Ry     beta= 0.70
     Davidson diagonalization with overlap
     ethr =  1.97E-10,  avg # of iterations =  2.0

     total cpu time spent up to now is      759.8 secs

     total energy              =    -520.62036139 Ry
     estimated scf accuracy    <       0.00000023 Ry

     iteration # 21     ecut=    60.00 Ry     beta= 0.70
     Davidson diagonalization with overlap
     ethr =  1.97E-10,  avg # of iterations =  2.0

     total cpu time spent up to now is      762.0 secs

     total energy              =    -520.62036152 Ry
     estimated scf accuracy    <       0.00000006 Ry

     iteration # 22     ecut=    60.00 Ry     beta= 0.70
     Davidson diagonalization with overlap
     ethr =  1.39E-10,  avg # of iterations =  2.4

     total cpu time spent up to now is      764.3 secs

     total energy              =    -520.62036152 Ry
     estimated scf accuracy    <       0.00000002 Ry

     iteration # 23     ecut=    60.00 Ry     beta= 0.70
     Davidson diagonalization with overlap
     ethr =  4.66E-11,  avg # of iterations =  8.8

     total cpu time spent up to now is      767.7 secs

     End of self-consistent calculation

     =================== HUBBARD OCCUPATIONS ===================
     ------------------------ ATOM    3 ------------------------
     Tr[ns(  3)] =   5.23660
     eigenvalues:
       0.219  0.312  0.399  0.712  0.976
     eigenvectors (columns):
      -0.535 -0.002  0.209 -0.000 -0.819
       0.001  0.965 -0.001  0.263 -0.003
       0.806 -0.002  0.417  0.000 -0.420
      -0.254  0.003  0.885 -0.003  0.391
       0.001  0.263 -0.003 -0.965 -0.002
     occupation matrix ns (before diag.):
       0.734  0.002  0.276 -0.209  0.001
       0.002  0.339  0.001 -0.001 -0.102
       0.276  0.001  0.384 -0.058  0.000
      -0.209 -0.001 -0.058  0.476  0.000
       0.001 -0.102  0.000  0.000  0.685

     Number of occupied Hubbard levels =    5.2366

          k = 0.0000 0.0000 0.0000 (  3801 PWs)   bands (ev):

   -72.8888 -42.3165 -41.5373 -40.9249 -11.8812 -10.5532 -10.2836 -10.0595
     0.8180   1.4926   2.2395   2.7007   3.0763   3.9172   4.0944   4.3655
     4.6272   5.4142   5.6227   5.6735   6.0594   7.1402   7.9970  10.0769
    10.3382  11.7323

          k =-0.0003 0.0005 0.1876 (  3830 PWs)   bands (ev):

   -72.8887 -42.3165 -41.5374 -40.9249 -11.6846 -10.7081 -10.3543 -10.0978
     1.0151   1.7990   1.9768   3.0783   3.0822   3.8794   4.0203   4.4763
     4.5950   4.9623   5.5672   5.5972   5.7603   7.0980   8.0995   9.7862
    10.3798  12.8495

          k = 0.0005-0.0009-0.3753 (  3818 PWs)   bands (ev):

   -72.8886 -42.3166 -41.5374 -40.9249 -11.3543 -10.9820 -10.4259 -10.1513
     1.2729   1.8281   2.5162   3.0137   3.0745   3.4800   3.8737   4.5489
     4.5664   4.8293   5.4780   5.5167   5.6272   7.0551   8.1824   9.5438
    10.4225  14.4689

          k = 0.0004 0.1192-0.0965 (  3821 PWs)   bands (ev):

   -72.8888 -42.3165 -41.5373 -40.9249 -11.7763 -10.5804 -10.4194 -10.0428
     1.0398   1.5134   2.1949   2.7957   3.1113   3.9382   4.1120   4.3123
     4.6874   5.0214   5.4818   5.6257   6.0632   7.1644   7.9908  10.1424
    10.3779  12.5217

          k = 0.0001 0.1197 0.0911 (  3814 PWs)   bands (ev):

   -72.8888 -42.3165 -41.5373 -40.9249 -11.7292 -10.7899 -10.2466 -10.0529
     0.9524   1.7946   2.1061   2.8934   3.0440   3.8034   3.9176   4.4816
     4.6136   5.2152   5.5791   5.5814   5.8382   7.1349   8.0960   9.7924
    10.3391  12.4970

          k = 0.0009 0.1183-0.4718 (  3825 PWs)   bands (ev):

   -72.8887 -42.3166 -41.5374 -40.9249 -11.4046 -11.0622 -10.3252 -10.0942
     1.3106   1.6552   2.4292   3.0429   3.1503   3.5073   3.9006   4.3297
     4.5847   5.0771   5.4366   5.4941   5.6741   7.0914   8.1996   9.5546
    10.3817  13.8588

          k = 0.0006 0.1188-0.2842 (  3817 PWs)   bands (ev):

   -72.8887 -42.3165 -41.5374 -40.9249 -11.5321 -10.7872 -10.4841 -10.0832
     1.2373   1.7899   2.2193   2.9693   3.1112   3.8309   3.8973   4.4310
     4.5015   4.8975   5.4434   5.5449   5.7672   7.1250   8.1204   9.8653
    10.4195  14.0963

          k =-0.0007-0.2385 0.1930 (  3818 PWs)   bands (ev):

   -72.8887 -42.3165 -41.5374 -40.9249 -11.6425 -10.6786 -10.5088 -10.0294
     1.0174   1.8612   2.3993   2.8199   3.1489   3.6042   3.9630   4.2542
     4.5754   4.9936   5.4727   5.5772   6.0643   7.1887   7.9826  10.2123
    10.4173  13.8365

          k =-0.0010-0.2380 0.3807 (  3815 PWs)   bands (ev):

   -72.8887 -42.3165 -41.5373 -40.9249 -11.5907 -10.8595 -10.3701 -10.0408
     1.3394   1.7477   2.0058   2.9059   3.0748   3.8038   3.9395   4.4349
     4.7322   4.8774   5.4298   5.5274   5.8042   7.1603   8.1269   9.8765
    10.3791  13.4207

          k =-0.0002-0.2394-0.1823 (  3830 PWs)   bands (ev):

   -72.8888 -42.3166 -41.5373 -40.9250 -11.4472 -11.1317 -10.2299 -10.0502
     1.1575   1.8295   2.3148   3.0130   3.0266   3.7065   3.9291   4.0942
     4.5956   5.1762   5.4777   5.5515   5.7312   7.1259   8.1657   9.5450
    10.3406  13.7604

          k = 0.2498-0.0605-0.1390 (  3822 PWs)   bands (ev):

   -72.8859 -42.3135 -41.5317 -40.9641 -11.3236 -10.5803 -10.2139 -10.0415
     1.4057   1.6758   2.1276   2.4324   2.7802   3.0137   3.8363   4.0080
     4.2800   5.0100   5.2986   5.5098   6.1189   6.9807   8.0201   9.6910
    10.1041  13.9434

          k = 0.2495-0.0600 0.0486 (  3822 PWs)   bands (ev):

   -72.8859 -42.3134 -41.5317 -40.9641 -11.4225 -10.4534 -10.2593 -10.0079
     1.4223   1.8131   2.0454   2.4459   2.8261   2.8673   3.7107   3.9880
     4.2874   5.0274   5.3848   5.5595   6.0444   7.0707   7.9475   9.7587
    10.0792  13.5901

          k = 0.2504-0.0614-0.5143 (  3826 PWs)   bands (ev):

   -72.8859 -42.3135 -41.5318 -40.9641 -11.2277 -10.5494 -10.3458 -10.0610
     1.3247   1.6837   2.2014   2.5539   2.6745   3.0083   3.9981   4.1225
     4.3872   4.9236   5.0547   5.4752   6.1616   6.9695   8.0160   9.6473
    10.0347  14.7136

          k = 0.2501-0.0609-0.3267 (  3843 PWs)   bands (ev):

   -72.8859 -42.3135 -41.5318 -40.9641 -11.0424 -10.7617 -10.2967 -10.1003
     1.3369   1.6526   2.0962   2.4467   2.7322   3.3568   3.9187   4.2013
     4.3838   4.8546   4.9999   5.4606   6.1840   6.8930   8.0836   9.8112
     9.8585  15.1067

          k = 0.2502 0.0587-0.2356 (  3826 PWs)   bands (ev):

   -72.8859 -42.3135 -41.5318 -40.9641 -11.2277 -10.5494 -10.3458 -10.0610
     1.3249   1.6837   2.2015   2.5534   2.6746   3.0083   3.9978   4.1225
     4.3871   4.9237   5.0548   5.4750   6.1616   6.9699   8.0156   9.6477
    10.0346  14.7135

          k = 0.2499 0.0592-0.0479 (  3822 PWs)   bands (ev):

   -72.8859 -42.3134 -41.5317 -40.9641 -11.4225 -10.4534 -10.2594 -10.0079
     1.4223   1.8131   2.0452   2.4460   2.8259   2.8677   3.7106   3.9882
     4.2871   5.0274   5.3848   5.5594   6.0444   7.0708   7.9475   9.7588
    10.0792  13.5900

          k = 0.2507 0.0578-0.6109 (  3822 PWs)   bands (ev):

   -72.8859 -42.3135 -41.5317 -40.9641 -11.3236 -10.5803 -10.2139 -10.0415
     1.4056   1.6757   2.1276   2.4323   2.7805   3.0138   3.8364   4.0085
     4.2799   5.0098   5.2983   5.5099   6.1190   6.9805   8.0203   9.6907
    10.1042  13.9434

          k = 0.2504 0.0583-0.4232 (  3843 PWs)   bands (ev):

   -72.8859 -42.3135 -41.5318 -40.9641 -11.0424 -10.7617 -10.2967 -10.1002
     1.3369   1.6526   2.0964   2.4468   2.7320   3.3567   3.9189   4.2013
     4.3836   4.8546   4.9997   5.4607   6.1841   6.8930   8.0836   9.8114
     9.8583  15.1067

          k = 0.2491-0.2989 0.0540 (  3837 PWs)   bands (ev):

   -72.8859 -42.3135 -41.5318 -40.9641 -11.1577 -10.6483 -10.3429 -10.0460
     1.4708   1.8453   2.1106   2.4658   2.6737   3.1214   3.7064   4.0370
     4.3744   4.8960   5.1104   5.5292   6.1543   6.9805   8.0310   9.6635
    10.1190  14.7140

          k = 0.2488-0.2985 0.2417 (  3833 PWs)   bands (ev):

   -72.8859 -42.3134 -41.5318 -40.9641 -11.2893 -10.4738 -10.4036 -10.0110
     1.3840   1.9724   2.2632   2.5114   2.6661   2.8891   3.5499   3.9487
     4.4763   4.9097   5.1582   5.5874   6.1140   7.0850   7.9355   9.7075
    10.0841  14.5002

          k = 0.2497-0.2999-0.3213 (  3835 PWs)   bands (ev):

   -72.8859 -42.3135 -41.5317 -40.9641 -11.2718 -10.6432 -10.2252 -10.0301
     1.6127   1.7833   1.9370   2.5652   2.7885   3.0480   3.5679   3.8878
     4.1485   5.0690   5.3486   5.5692   6.1088   6.9849   8.0316   9.7200
    10.1881  13.8692

          k = 0.2494-0.2994-0.1336 (  3816 PWs)   bands (ev):

   -72.8858 -42.3135 -41.5317 -40.9640 -11.0637 -10.8661 -10.1959 -10.0605
     1.5733   1.7191   1.9750   2.5668   2.7529   3.1036   3.5078   4.1682
     4.2895   4.8407   5.3153   5.5385   6.1557   6.8938   8.0976   9.9100
     9.9437  14.6220

          k = 0.2495-0.1797-0.0425 (  3835 PWs)   bands (ev):

   -72.8859 -42.3135 -41.5317 -40.9641 -11.2718 -10.6432 -10.2252 -10.0301
     1.6129   1.7834   1.9371   2.5652   2.7882   3.0475   3.5681   3.8873
     4.1488   5.0691   5.3487   5.5693   6.1089   6.9851   8.0314   9.7202
    10.1881  13.8692

          k = 0.2492-0.1793 0.1451 (  3832 PWs)   bands (ev):

   -72.8859 -42.3134 -41.5318 -40.9641 -11.2893 -10.4738 -10.4036 -10.0110
     1.3840   1.9724   2.2632   2.5118   2.6656   2.8891   3.5498   3.9488
     4.4765   4.9096   5.1582   5.5875   6.1141   7.0850   7.9356   9.7075
    10.0841  14.5002

          k = 0.2500-0.1806-0.4178 (  3838 PWs)   bands (ev):

   -72.8859 -42.3135 -41.5318 -40.9641 -11.1577 -10.6483 -10.3430 -10.0460
     1.4704   1.8453   2.1105   2.4659   2.6740   3.1216   3.7065   4.0372
     4.3742   4.8961   5.1104   5.5291   6.1542   6.9801   8.0313   9.6632
    10.1190  14.7143

          k = 0.2497-0.1802-0.2302 (  3816 PWs)   bands (ev):

   -72.8858 -42.3135 -41.5317 -40.9640 -11.0637 -10.8661 -10.1959 -10.0605
     1.5733   1.7191   1.9749   2.5666   2.7533   3.1036   3.5078   4.1684
     4.2894   4.8408   5.3154   5.5384   6.1556   6.8937   8.0976   9.9099
     9.9438  14.6221

          k =-0.4996 0.1210 0.2781 (  3854 PWs)   bands (ev):

   -72.8835 -42.3104 -41.5262 -41.0028 -10.6355 -10.4367 -10.2824 -10.1012
     0.7113   1.2108   1.8413   2.2714   2.5848   3.4975   3.9007   4.2678
     4.5368   4.7626   4.8063   5.3297   5.9792   6.7969   7.9280   9.9980
    10.1073  15.3005

          k =-0.4999 0.1214 0.4657 (  3836 PWs)   bands (ev):

   -72.8835 -42.3104 -41.5262 -41.0028 -10.6812 -10.4538 -10.2673 -10.0595
     0.9148   1.2300   1.9712   2.3749   2.5962   3.4242   3.6778   4.2292
     4.4031   4.5176   4.9136   5.1628   5.9759   6.9653   7.9124   9.8135
    10.0659  15.8445

          k =-0.4991 0.1201-0.0972 (  3826 PWs)   bands (ev):

   -72.8835 -42.3104 -41.5262 -41.0029 -10.7192 -10.4742 -10.2505 -10.0241
     1.0786   1.3427   2.2146   2.4456   2.6498   3.1030   3.3977   4.1558
     4.3502   4.4912   4.8963   5.0347   5.9669   7.0943   7.9002   9.5985
    10.0812  16.0953

          k =-0.4993 0.2402 0.1816 (  3842 PWs)   bands (ev):

   -72.8835 -42.3104 -41.5262 -41.0028 -10.6353 -10.4374 -10.2815 -10.1016
     0.7760   1.1132   1.8489   2.2713   2.5742   3.6501   3.8618   4.2022
     4.5287   4.7508   4.8173   5.3253   5.9779   6.8003   7.9229  10.0131
    10.0825  15.6110

          k =-0.4995 0.2407 0.3692 (  3834 PWs)   bands (ev):

   -72.8835 -42.3104 -41.5262 -41.0028 -10.6804 -10.4563 -10.2650 -10.0602
     0.8991   1.2671   1.9642   2.2338   2.7982   3.3418   3.6757   4.2148
     4.4075   4.5183   4.9244   5.1714   5.9743   6.9700   7.9118   9.8025
    10.0795  15.6329

          k =-0.4987 0.2393-0.1937 (  3823 PWs)   bands (ev):

   -72.8835 -42.3104 -41.5262 -41.0028 -10.7211 -10.4681 -10.2562 -10.0225
     1.0924   1.3115   2.1814   2.5349   2.6896   3.0012   3.4681   4.1324
     4.2837   4.4844   4.8773   5.0958   5.9713   7.0986   7.9004   9.6089
    10.0729  16.0508

          k =-0.4990 0.2398-0.0061 (  3834 PWs)   bands (ev):

   -72.8835 -42.3104 -41.5262 -41.0028 -10.6804 -10.4564 -10.2648 -10.0603
     0.8993   1.2668   1.9642   2.2336   2.7985   3.3418   3.6757   4.2143
     4.4076   4.5184   4.9241   5.1714   5.9744   6.9701   7.9119   9.8023
    10.0795  15.6328

          k =-0.5003-0.1175 0.4711 (  3854 PWs)   bands (ev):

   -72.8835 -42.3104 -41.5262 -41.0028 -10.6355 -10.4367 -10.2823 -10.1013
     0.7115   1.2104   1.8412   2.2718   2.5851   3.4978   3.9003   4.2674
     4.5368   4.7626   4.8062   5.3297   5.9793   6.7972   7.9281   9.9978
    10.1074  15.3003

          k =-0.5006-0.1170 0.6588 (  3836 PWs)   bands (ev):

   -72.8835 -42.3104 -41.5262 -41.0028 -10.6812 -10.4538 -10.2674 -10.0596
     0.9148   1.2300   1.9712   2.3751   2.5962   3.4243   3.6779   4.2288
     4.4030   4.5176   4.9136   5.1629   5.9759   6.9655   7.9123   9.8136
    10.0659  15.8440

          k =-0.4998-0.1184 0.0958 (  3826 PWs)   bands (ev):

   -72.8835 -42.3104 -41.5262 -41.0029 -10.7192 -10.4740 -10.2506 -10.0241
     1.0784   1.3427   2.2146   2.4459   2.6499   3.1032   3.3974   4.1558
     4.3499   4.4914   4.8962   5.0348   5.9668   7.0944   7.9001   9.5988
    10.0812  16.0955

     the Fermi energy is     7.0462 ev

!    total energy              =    -520.62036154 Ry
     total all-electron energy =     -3720.873620 Ry
     estimated scf accuracy    <          8.4E-09 Ry
     smearing contrib. (-TS)   =      -0.00491448 Ry
     internal energy E=F+TS    =    -520.61544706 Ry

     The total energy is F=E-TS. E is the sum of the following terms:
     one-electron contribution =    -240.57219769 Ry
     hartree contribution      =     145.35936984 Ry
     xc contribution           =     -61.24996671 Ry
     ewald contribution        =    -185.65619490 Ry
     Hubbard energy            =       0.24477742 Ry
     one-center paw contrib.   =    -178.74123501 Ry

     convergence has been achieved in  23 iterations
     force_hub    :    275.38s CPU     32.19s WALL (      17 calls)
     dndtau       :    241.41s CPU     28.30s WALL (   12852 calls)
     dprojdtau    :     36.75s CPU      4.63s WALL (   12852 calls)
     calc_doverla :    127.95s CPU     15.11s WALL (   12852 calls)
     matel_dSdtau :    176.36s CPU     20.23s WALL (   25704 calls)

     Forces acting on atoms (cartesian axes, Ry/au):

     atom    1 type  1   force =    -0.00005314   -0.00008818   -0.00004787
     atom    2 type  1   force =     0.00001756   -0.00015833    0.00006920
     atom    3 type  3   force =    -0.00000602    0.00002513    0.00015698
     atom    4 type  2   force =     0.00001215   -0.00006160    0.00002920
     atom    5 type  2   force =    -0.00000293    0.00010441   -0.00012469
     atom    6 type  2   force =    -0.00004750    0.00017474    0.00000110
     atom    7 type  2   force =     0.00007988    0.00000384   -0.00008392

     Total force =     0.000382     Total SCF correction =     0.000129
     SCF correction compared to forces is large: reduce conv_thr to get better values


     Computing stress (Cartesian axis) and pressure

     stres_hub    :    771.89s CPU     88.12s WALL (      17 calls)
     dprojdepsilo :    621.34s CPU     71.31s WALL (    5508 calls)
     dprojdeps1   :     69.30s CPU      8.15s WALL (    5508 calls)
     dprojdeps2   :    342.36s CPU     39.91s WALL (    5508 calls)
     dprojdeps3   :    209.48s CPU     23.23s WALL (    5508 calls)
          total   stress  (Ry/bohr**3)                   (kbar)     P=        0.12
   0.00000119  -0.00000001   0.00000004            0.18       -0.00        0.01
  -0.00000001   0.00000093  -0.00000004           -0.00        0.14       -0.01
   0.00000004  -0.00000004   0.00000032            0.01       -0.01        0.05


     Writing all to output data dir .\out\\qgan.save\ :
     XML data file, charge density, pseudopotentials, collected wavefunctions
 
     init_run     :     23.66s CPU      3.30s WALL (       2 calls)
     electrons    :   5504.59s CPU    605.63s WALL (      17 calls)
     update_pot   :     19.48s CPU      2.38s WALL (      15 calls)
     forces       :    327.52s CPU     38.62s WALL (      17 calls)
     stress       :    995.20s CPU    117.83s WALL (      17 calls)

     Called by init_run:
     wfcinit      :     16.03s CPU      1.75s WALL (       2 calls)
     potinit      :      3.31s CPU      0.37s WALL (       2 calls)
     hinit0       :      1.47s CPU      0.74s WALL (       2 calls)

     Called by electrons:
     c_bands      :   4013.14s CPU    431.64s WALL (     215 calls)
     sum_band     :    912.47s CPU    103.74s WALL (     215 calls)
     v_of_rho     :     39.12s CPU      4.68s WALL (     223 calls)
     newd         :    337.25s CPU     41.21s WALL (     223 calls)
     PAW_pot      :    249.97s CPU     30.25s WALL (     238 calls)
     mix_rho      :      8.16s CPU      0.86s WALL (     215 calls)

     Called by c_bands:
     init_us_2    :    370.86s CPU     40.70s WALL (   19152 calls)
     cegterg      :   3419.92s CPU    365.93s WALL (    7806 calls)

     Called by *egterg:
     cdiaghg      :    168.97s CPU     16.91s WALL (   44334 calls)
     h_psi        :   2491.80s CPU    268.46s WALL (   45304 calls)
     s_psi        :     97.44s CPU     10.99s WALL (   48364 calls)
     g_psi        :     20.23s CPU      2.38s WALL (   37426 calls)

     Called by h_psi:
     h_psi:calbec :     94.55s CPU     10.08s WALL (   45304 calls)
     vloc_psi     :   2202.64s CPU    238.43s WALL (   45304 calls)
                                        0.00s GPU  (   45304 calls)
     add_vuspsi   :     95.78s CPU     10.34s WALL (   45304 calls)
     vhpsi        :     54.88s CPU      5.51s WALL (   45304 calls)

     General routines
     calbec       :    742.61s CPU     86.19s WALL (  538088 calls)
     fft          :     12.16s CPU      1.41s WALL (    3314 calls)
     ffts         :      0.73s CPU      0.07s WALL (     438 calls)
     fftw         :   1614.72s CPU    191.49s WALL ( 1598732 calls)
     interpolate  :      3.31s CPU      0.38s WALL (     223 calls)
 
     Parallel routines

     Hubbard U routines
     new_ns       :     16.95s CPU      1.82s WALL (     215 calls)
     vhpsi        :     54.88s CPU      5.51s WALL (   45304 calls)
     force_hub    :    275.38s CPU     32.19s WALL (      17 calls)
     stres_hub    :    771.89s CPU     88.12s WALL (      17 calls)
 
     PWSCF        :      1h55m CPU  12m57.02s WALL

 
   This run was terminated on:  16:33:28  21Apr2026            

=------------------------------------------------------------------------------=
   JOB DONE.
=------------------------------------------------------------------------------=
