Mg1 Mn1 O3
1.0
   3.5488591940160079    0.0595664351420355   -0.9340001817369301
  -2.4324166195952359    5.4343905446133434   -2.6511742538555310
  -0.9910342073784448   -0.6119970199700161    7.8600225292792247
Mg Mn O
1 1 3
direct
   0.5510858655929504    0.1815623435493375    0.2514217444160269 Mg
   0.4223280684584442    0.4214619201892614    0.5823801069356087 Mn
   0.5214366017331910    0.6690676092966064    0.5636685410605627 O
  -0.1004821369717643    0.3514946967888395    0.5906019983631360 O
   0.0338277915163464    0.1387714082003494    0.2531181207906341 O
