Mg2 Mn1 O3
1.0
   5.2592999443898698    0.8832199272794539    0.2639900981429268
  -0.5455883848730608    1.9348039441904130    2.3823671158976985
  -1.9103690784297260   -2.1771521200758444    5.5637011361410167
Mg Mn O
2 1 3
direct
   0.4991238255605353    0.5381051882328121    0.6211954117188784 Mg
   0.1913442719314614    0.1715133847548261   -0.0684673387521482 Mg
  -0.0190937070209861    0.2243522927994113    0.4123625306534820 Mn
   0.1830033744077773    0.8587101629155073    0.2836251628301289 O
   0.8547948612814883    0.5184377093743200    0.6153741215568603 O
   0.3715309096671733   -0.1662750328875221    0.8012101595003575 O
