Mg1 Mn1 O3
1.0
   3.5286879551753065    0.5107821757729644    1.3536467885544352
  -0.2221698657191841    4.0620218693933126    4.1965830979354468
  -0.1198305368645200    0.9728356732892566    5.1038733385384587
Mg Mn O
1 1 3
direct
   0.3951273069941166    0.4136831040224357    0.9721689966566530 Mg
   0.0775102704027591    0.8698278738662357    0.1331545455337664 Mn
   0.5504457761668908    0.8504030530640901    0.2173554714822687 O
   0.9661193212441410    0.3867400985957141    0.8509063350778655 O
   0.2473998460420665   -0.0372841039866241    0.6850772193584379 O
