Mg2 Mn1 O3
1.0
   5.6853811905680871    0.9891865828553045    0.6325970877773284
   0.1617353432950286    2.5188498345016197    2.2313499206011826
  -1.3182635264509617   -1.8778913295964044    5.5593133414599620
Mg Mn O
2 1 3
direct
   0.4872425885001228    0.5192533871850598    0.6162005464041733 Mg
   0.1339477112764970    0.0619087566267453   -0.0726848555336396 Mg
   0.0363706176757850    0.3287581841718809    0.4106215947840130 Mn
   0.1859855150001415    0.8597973132795371    0.2798290542365852 O
   0.8377209731840856    0.3352548444761153    0.6514079381174716 O
   0.3708388481017494   -0.0152401520126227    0.7434602504775208 O
