Mg1 Mn1 O2
1.0
   3.7630786664875426    0.3838678365527489    1.3004950121103731
  -0.1307122833914392    3.7496621453397774    3.6288852029358387
  -0.2935452543796183    0.0131074160149610    5.1975398457501587
Mg Mn O
1 1 2
direct
   0.4421841228230903    0.4007608657408926    0.8600026514023590 Mg
  -0.0164919709826783    0.8397467411575131    0.3026000075968632 Mn
   0.4305763597615741    0.9164153762788237    0.3763495322317787 O
   0.9816626688717907    0.3403830484599955    0.8039618556467394 O
