Mg2 Mn1 O4
1.0
   4.6683108413920067    1.6835798523772896    2.3264387067630476
   2.1084626036594161    4.0482630431393494    3.0803841637989100
   0.9494533318422130   -0.6471405184078095    5.6567737365627417
Mg Mn O
2 1 4
direct
   0.3684535341383968    0.6122767946500548    0.5118581276828018 Mg
  -0.1005305591370869    0.1454686559749960   -0.0204408710230911 Mg
   0.1364701120830334    0.3757423397132799    0.3971029869272210 Mn
   0.6346843756559942    0.8776530949630165    0.2811757843943308 O
   0.9169682848862469    0.1522608543261109    0.6150528765208454 O
   0.1323549359987344    0.3805376163184803    0.7077534436956395 O
   0.3599480892247467   -0.4035251327332792    0.1711216546970334 O
