Mg1 Mn1 O2
1.0
   3.7573565152364985    0.3804850662918178    1.2964615095069829
  -0.1229976247681833    3.7596643504466414    3.6166264044970236
  -0.2922453407961865    0.0181214004209314    5.1930886506758007
Mg Mn O
1 1 2
direct
   0.4404973009065929    0.3969412843902720    0.8584083102328584 Mg
  -0.0182878155263947    0.8359628794197175    0.3007175098513367 Mn
   0.4275326166609054    0.9131789874296935    0.3749990578054543 O
   0.9795370507764429    0.3363887647481452    0.8017182924743069 O
